1000
C1000 1000 K last frame of liquid_carbon.lammpstrj
C 4.11201 0.14164 4.76475
C 1.05436 0.78189 4.35559
C -5.78799 1.42816 9.16791
C 9.84999 -2.84328 3.04379
C 2.51337 2.72674 6.00376
C 7.22204 -3.99653 -1.79102
C 3.43475 -5.87870 4.68748
C -5.73211 4.79547 0.12388
C -1.58539 2.10114 10.58823
C 2.38425 -5.45477 -6.65993
C -0.18698 -0.78006 1.43867
C 1.62077 0.27731 -2.67915
C 2.98800 2.85522 11.41419
C 3.00550 -6.67789 -7.54106
C -3.86628 -1.35730 10.12183
C -6.54356 -5.03446 5.19828
C 0.75197 -2.55262 -7.68243
C -0.03737 -5.98488 -5.19930
C -3.30829 -0.67732 0.36548
C -2.17228 2.43498 7.14696
C -1.22673 -4.13363 9.43297
C -0.44627 2.78858 5.12711
C 0.56437 2.60397 -2.70469
C -0.80461 2.56268 -4.43485
C -3.98399 -6.97718 -0.93550
C -0.77531 -3.39155 -0.19115
C 0.92828 -0.25779 10.62129
C 6.63547 2.28375 -8.71097
C 1.61546 -4.96925 -10.12318
C 4.38822 7.88981 0.87011
C 2.38470 2.05823 -4.32472
C 0.86586 1.27350 -8.41142
C 0.85652 -1.25112 -1.00136
C -8.27456 -7.83043 -3.28796
C -9.88325 -4.16131 -5.12417
C 1.37627 -2.62185 6.52220
C -0.63886 2.35466 -11.10303
C -1.07375 5.35294 2.29088
C -2.87664 6.19329 3.89827
C -3.11175 2.08287 2.47647
C 4.27277 -1.36677 4.67180
C -3.90783 -2.86202 -0.15193
C 3.59169 0.85468 3.53397
C 0.68974 0.10884 -11.11982
C -2.54339 0.45940 -6.14576
C -3.41706 -4.63256 8.57985
C 6.22508 -2.00559 -6.86244
C -0.52334 -3.06899 10.35584
C 4.49459 1.23914 -9.33786
C -3.74117 3.27773 9.91415
C -7.58395 3.53514 -2.76348
C -0.10894 3.63749 -10.66451
C 3.68788 4.56231 3.82678
C 1.23521 -0.00324 -8.17223
C 8.29653 8.17840 2.46130
C 7.27928 4.17487 -7.49970
C 9.36065 1.23104 -2.77152
C -0.33724 0.39821 -0.85409
C 5.33248 -0.75057 -3.68797
C -1.20365 0.63831 2.99816
C 1.49722 4.38003 -8.92708
C -7.29024 -1.14709 -3.96878
C -8.55518 -0.50094 0.58911
C -2.52576 3.23864 1.74126
C 5.42809 -2.57174 8.03975
C -8.90599 -3.59509 2.58407
C -0.00976 4.60807 1.57927
C -6.16817 -4.34689 -4.05156
C 3.10617 -3.46752 -10.59955
C -5.48482 4.44796 1.57233
C -3.94517 4.36265 -3.15300
C 2.39579 -6.61320 -8.87341
C 5.88405 0.56622 -7.26874
C -8.03323 7.17865 0.49823
C 2.55473 11.29958 -1.52648
C -1.34613 -0.38724 6.44468
C -0.03737 -1.12446 -5.49625
C -4.70981 8.20887 1.58244
C 1.58519 3.29355 -4.74509
C -4.07403 -2.18566 -5.05241
C 2.05489 3.75780 1.38480
C 0.84486 10.10355 2.16869
C 0.05889 1.22981 -4.47128
C 0.50473 7.42997 -6.85323
C -1.99409 0.30726 -4.82229
C 6.03820 3.42773 9.33431
C 1.35163 3.16565 8.52935
C 4.27199 1.67079 -0.47520
C -0.94462 6.28761 -1.94368
C 8.18867 -7.37531 -0.07026
C -5.58082 -0.51941 5.29046
C -1.68223 1.55366 -7.99572
C 1.31883 -2.56779 -1.21229
C 1.65357 -5.28772 2.29088
C 3.96364 -6.78284 -1.34926
C 7.43907 -2.57466 7.01926
C -5.13841 -0.76016 10.01812
C 1.00464 -2.41954 -10.83888
C -4.86078 1.85800 -6.62966
C -8.14699 -4.49670 -6.74161
C -4.80108 -2.71876 4.55680
C 10.27879 0.85838 3.23048
C 5.21872 -2.15150 -10.64519
C 1.21797 -2.63514 1.36503
C 3.71556 0.43198 -1.01011
C 0.46688 5.24676 10.80499
C 10.44836 -3.65829 -1.97622
C -3.48493 4.48005 6.19265
C 4.45246 -2.42557 11.66090
C -1.09475 0.63455 5.45031
C 7.06926 2.64247 -4.54998
C 1.74608 -5.91870 9.54706
C -9.92260 3.54849 -1.38621
C 2.03233 -11.18698 -1.28256
C -4.59008 -0.65800 -9.45052
C 0.43330 2.59619 7.73185
C -7.25388 6.04498 5.68432
C 0.90034 -3.50453 5.61359
C -1.26854 6.37266 4.45782
C -3.88093 1.00313 -3.20602
C 2.09235 2.11631 -8.83866
C 0.69700 -7.06002 1.13504
C -2.11472 0.27504 -8.31581
C -4.65088 3.33860 -9.44358
C 3.28132 -3.81075 -0.53082
C 2.86743 7.11603 7.38148
C 4.56862 -0.04330 1.51406
C -2.04932 -5.26782 -6.47603
C -7.37944 9.11365 -3.90176
C 2.93783 -2.30072 8.15468
C -4.04642 -4.42727 -9.47437
C 1.29025 3.13551 -1.65645
C 8.26931 -4.60106 -6.34989
C -10.80126 1.67410 3.22568
C 4.66144 4.90301 -6.33667
C -0.58778 7.58191 1.31816
C -4.28166 0.87581 7.22883
C 1.17888 -2.20427 -3.64026
C -2.17326 4.35565 2.57604
C -2.34646 -0.88475 -10.56598
C -5.84866 0.02172 -2.38700
C -4.66242 -7.14513 -3.37443
C 4.77294 7.85650 -5.39526
C -1.15127 9.80498 -3.43095
C 7.87065 -0.29189 9.70509
C -3.14611 3.95039 -0.78434
C -4.59831 1.09375 3.88531
C 2.99228 -0.73722 -4.31908
C 4.81922 4.53942 -1.39127
C 4.23518 -8.59384 -5.22192
C -4.84963 -5.93588 1.33768
C -1.17111 -9.67565 4.95948
C 9.83223 4.79392 0.27609
C 0.37963 -2.19390 3.56963
C 6.28828 4.79184 5.27302
C -1.39838 -2.96268 5.93874
C -5.88996 8.66781 -0.49627
C 4.61348 -6.92318 -0.13002
C 7.88751 -3.79630 -0.50204
C 1.67477 -0.97459 -11.01040
C 9.70343 0.98439 4.71049
C 5.73943 -5.10978 -3.07644
C 5.70722 -3.08980 3.64787
C -8.20170 -7.01769 1.39861
C 3.77922 -11.47005 -3.46252
C -6.00670 3.42682 6.02748
C -4.19311 -9.92632 5.89512
C -7.60942 -2.55897 7.63040
C -2.64970 -3.17031 -10.75727
C 1.69441 -9.61589 -5.79086
C -7.71768 6.54897 -3.94810
C -1.45937 -6.06312 8.00760
C -6.59509 -1.21703 -0.61347
C 3.46315 7.31970 -4.89489
C -0.37373 -1.37383 4.40700
C 4.56966 5.19510 -0.15349
C 0.38948 1.52514 5.43352
C -0.01767 9.29153 3.09409
C -1.74576 -3.14542 -7.59207
C -7.94391 6.08964 3.32752
C 1.33296 3.97871 3.82898
C -9.03642 -2.46265 -2.51139
C 8.87708 3.94287 -0.32105
C 6.24466 4.49891 -9.76782
C -6.63256 3.81095 -7.73034
C 5.27077 -3.56909 11.12165
C 0.94313 -4.77841 -0.07013
C -5.88529 2.51588 2.73764
C -6.90688 4.48867 -1.87912
C -7.79741 -2.39958 -3.35440
C -2.16256 -9.18994 7.06613
C -1.06474 -6.34821 -4.21640
C 1.49359 5.68243 -3.83207
C -10.78460 2.36264 -1.25261
C 9.09209 0.85961 -6.60470
C 4.22655 -0.75394 -0.64614
C -2.41615 -3.50194 5.29130
C -3.11687 -10.67592 0.67357
C -7.37613 0.00526 6.21702
C 6.65498 0.26052 5.08290
C 5.10243 3.62064 -5.81394
C -9.69138 -0.41187 -6.09067
C 7.07892 3.49378 -1.99067
C 0.67107 -4.42034 -2.43341
C -9.43747 0.53167 8.20077
C 0.90268 6.72613 3.01773
C 9.28721 -2.59586 5.20522
C -8.05151 -6.27256 2.59010
C -5.14398 -2.63981 0.60059
C -2.54916 -2.01026 -7.32598
C -8.75600 4.22186 4.96712
C -4.98102 6.32637 6.92481
C 5.19681 5.01412 1.12357
C -0.80551 5.33226 9.06400
C -10.31244 -1.18339 -1.02476
C -3.53970 10.75501 -3.54070
C -2.94581 -0.27205 10.60048
C 4.72076 -6.45413 7.86603
C -3.96960 -7.62650 -7.53918
C -5.05946 -1.04454 2.76279
C 5.65419 -1.86026 4.19069
C -0.52620 7.95438 -0.23841
C 6.40781 -8.91898 -1.08148
C 0.11613 6.30343 8.86014
C 5.67183 0.76925 -3.61259
C -7.02992 1.56299 4.62072
C -0.15055 -9.15286 0.84918
C -5.46498 -9.68939 1.64130
C -2.33946 1.60668 -0.12808
C 3.83522 0.64466 8.96463
C -8.79379 -1.35717 3.45139
C 2.47662 3.85808 8.10094
C 9.02222 1.71176 0.55171
C -10.11693 0.96812 -4.14348
C -5.08422 -9.47412 4.86633
C -1.77045 7.20043 -7.51305
C -2.04271 10.55491 0.45363
C 4.18150 -3.67482 6.16860
C -6.50609 4.82464 8.58030
C -0.01170 -4.58544 -7.20846
C -0.66569 10.65156 0.02185
C -3.00071 9.48074 0.20400
C 0.98837 -3.37495 4.14181
C -9.50955 1.61336 5.18415
C 0.38248 -1.15655 -7.92383
C 5.37228 -10.00086 -0.96526
C -2.56647 1.08999 -3.80465
C 3.35703 -2.78540 2.82391
C 4.51773 9.89178 -0.61230
C -3.37921 5.23840 -0.24359
C 5.07041 -0.98296 0.52565
C 5.02341 -9.23648 -4.21537
C 3.88125 -1.68926 -1.75680
C 5.77230 -0.46295 7.58328
C -3.76094 6.21313 -8.31471
C -1.48342 -7.14805 4.55006
C 0.26373 4.95163 -3.51159
C -10.09334 -0.11596 0.14748
C 3.60530 -5.11678 -4.27552
C -3.39638 -6.55745 -3.29917
C -0.49288 -0.00116 10.71969
C 3.12445 -0.93026 -10.70839
C 3.27957 5.84462 0.05012
C 8.17940 2.61116 7.71733
C -1.77681 -8.39840 -7.43300
C 3.83717 -0.25922 2.63314
C 1.28506 -11.10731 5.42276
C -8.81097 -5.62693 -1.89934
C -1.30373 -9.25048 3.57177
C 1.54208 -10.60883 -4.74678
C -1.87877 0.15661 7.70145
C -9.71147 5.85272 -1.28100
C 7.86391 -2.22073 -9.12544
C -4.58314 -3.07975 -9.54873
C -0.39597 5.79068 -9.30065
C 7.59924 -7.41784 2.19151
C -1.02934 -11.13402 5.02099
C 2.77914 -8.88333 -5.07030
C -1.63154 -0.77747 10.92919
C -5.99438 -5.09585 1.23539
C -3.81585 -9.48598 -2.92411
C -8.82620 2.54142 -2.26604
C -7.06382 -5.11776 -7.35158
C 3.68062 -6.01100 7.16284
C -4.06755 -6.55194 7.58807
C 4.97596 -6.48103 2.68319
C 6.89955 2.91278 0.92437
C -9.70564 0.88897 -5.41399
C 4.62514 2.45041 -6.43973
C 7.36789 8.59599 -0.00576
C 8.19172 5.07771 -5.07789
C -2.25772 10.68572 -3.67851
C 7.08715 0.42796 0.98654
C -0.60158 -7.75452 0.99185
C 6.87868 -0.01549 10.57676
C 8.34502 2.76129 -5.42209
C 10.53438 -0.70124 1.11125
C 0.87902 -2.74300 10.77044
C 9.73882 5.79036 -2.58451
C -1.79236 5.72703 -3.05304
C 10.38477 5.28125 2.55782
C 6.51302 -5.46527 8.95108
C 4.38193 -6.99747 -7.17157
C 2.21532 2.63178 -10.37903
C 2.78407 -7.42886 -3.10821
C -4.35653 5.00653 8.94460
C 2.94198 10.95589 0.67753
C -2.74032 -7.51105 -8.16678
C -1.64995 -2.17795 -10.92146
C 10.30375 -3.75850 -3.40807
C -2.79950 6.06780 -9.24516
C -10.34115 -0.17138 -3.42350
C 0.47031 5.95611 7.06373
C 0.37198 8.24070 6.83199
C -0.88764 -6.37141 6.70351
C 1.73538 -9.99509 -0.51254
C -1.89180 2.79254 5.58643
C -3.57361 3.70892 -5.56567
C -0.91279 5.02818 5.24340
C -1.44317 7.81054 5.12471
C 4.33020 -4.41962 -5.33880
C 4.92456 5.45679 3.58713
C 6.17990 8.39329 -3.71410
C 3.70370 2.03665 6.42646
C -4.39114 -0.04109 -0.49769
C 9.55149 -4.43939 1.15086
C -3.83737 1.93235 -2.05621
C -1.52847 5.11576 -5.31397
C -5.50167 -5.19690 -5.02227
C -2.71718 11.25680 2.96510
C -5.02419 0.62774 10.17499
C -3.30071 -9.24776 -4.25218
C 4.24931 0.10793 11.14965
C -1.35093 -2.07086 -0.27937
C 4.15149 7.15091 2.05720
C -1.82147 8.32133 -3.00877
C -9.62837 -0.83114 7.70384
C -3.08815 -7.09256 1.69510
C 9.17604 -0.81234 0.79901
C -1.66006 -7.12465 -1.85390
C -2.51526 -8.91049 -6.36564
C 2.27762 2.84109 4.45471
C -8.13973 -7.54690 -0.76269
C 4.26597 -5.60716 10.12352
C 8.28240 0.38070 -2.99172
C -8.51492 2.90021 -4.68144
C 2.86186 -2.63760 -1.21728
C 0.80933 5.60121 0.87115
C -10.58061 -1.38207 -4.05830
C 0.18873 1.23629 -11.18224
C -7.70309 0.38239 -7.19958
C -7.80797 -1.87990 -6.98281
C 5.50005 -6.34568 -7.81856
C 9.19399 -4.39454 -0.29370
C -8.61028 -6.65339 0.13406
C 2.78906 -3.84245 8.13964
C -7.08586 -2.62587 6.31750
C 4.06813 -10.33781 -0.22823
C -2.95501 -5.95312 8.28815
C 6.12156 4.72261 3.81089
C -5.33041 6.69722 -4.56767
C 6.31227 -5.07284 -1.82233
C -3.48927 8.81988 -1.02671
C 1.19658 4.49911 -1.18098
C -2.72638 -4.80493 -1.19388
C 3.81960 -2.25496 -10.70197
C 0.81063 5.50391 -8.52480
C 7.29153 -4.91584 6.40578
C 8.50857 -2.02562 1.23279
C -6.57448 -2.93170 2.74399
C 7.99213 -7.62643 -2.45901
C 9.13851 -0.66974 6.61490
C -2.21785 -11.41547 2.94137
C -2.87962 -6.45225 -9.11403
C 6.66568 2.23798 9.67735
C -10.44474 -1.49699 5.33693
C -5.89222 3.36271 -4.81957
C -6.37087 -4.90313 -1.32742
C 0.50337 -5.84888 -9.92281
C 2.39216 10.90624 -2.87193
C 1.87721 6.92799 -3.21108
C 3.17112 0.46264 10.30619
C -2.07726 -10.58348 -1.43904
C -2.03007 -0.61768 -7.14532
C -4.63597 -10.49578 2.54518
C -8.80033 3.96141 2.50927
C 7.01247 -4.52256 9.70464
C 5.45986 -5.46682 1.75318
C -6.91473 2.66458 -7.03039
C 5.50672 8.84477 -8.25579
C 4.84839 -7.63376 5.47209
C -2.35165 1.81081 -6.58254
C 4.66410 -0.39295 8.42830
C -8.72644 -2.93902 0.01738
C 0.81912 -2.83531 7.96294
C 4.09808 10.07509 -4.57156
C 3.27263 -3.37567 11.48880
C 9.57703 3.66874 -3.69932
C 11.46257 1.53110 -1.61270
C -0.10323 10.96497 -1.25838
C -6.70490 2.19663 5.88358
C 7.01986 -2.26364 10.54908
C -4.88710 4.17953 10.06622
C 4.92884 3.73388 10.10466
C 2.52070 0.82039 -1.76833
C -0.94462 8.36237 -5.28661
C 7.07736 -8.29092 0.15208
C -9.61845 2.34274 6.40501
C 3.40027 10.03704 1.56015
C 6.14431 3.88388 1.59119
C 0.70510 3.04839 11.29680
C 1.92071 -7.57859 1.64921
C 3.19809 -3.11132 -7.41543
C -2.77720 3.61707 -11.17628
C 6.80841 -0.26466 -5.38851
C 0.46500 -7.67965 -2.52442
C 9.40590 7.32152 2.35000
C -8.46287 1.45539 -1.24885
C -1.63297 7.06632 -0.82790
C 0.75670 -5.25408 8.81723
C 4.91276 9.16733 -1.79550
C 6.25743 -7.22168 5.75400
C -1.47026 4.77499 7.82876
C -5.08260 6.71038 4.71827
C -6.46039 -2.51191 8.60040
C 0.48399 10.61506 0.95283
C -7.29971 -3.91998 -3.32426
C 1.89562 8.92522 4.58830
C 2.54384 4.05430 6.68206
C 3.12698 10.06868 -5.72889
C 4.73839 2.58342 -10.12013
C -4.27829 -8.60525 -5.13448
C 2.29265 6.02566 -6.63394
C -13.17867 -0.11039 -1.01582
C 9.55939 6.67194 -1.34356
C 10.56731 4.30944 1.51788
C -9.34289 4.38502 -4.47148
C -7.80622 3.32103 0.17775
C 9.26394 -5.91727 -2.14242
C 10.91333 2.84005 1.56416
C -2.50074 -6.18350 -4.36958
C -9.00647 -6.45173 -5.31287
C -3.63422 0.86116 5.01658
C -4.57634 3.88939 -4.49228
C -9.39916 5.27600 -0.05911
C -5.12830 -4.40530 -1.80600
C 3.27516 4.96440 -6.70077
C -4.53777 -5.85692 3.65889
C -11.61685 -1.80373 -1.29604
C -0.26768 8.43328 5.60783
C -6.34021 6.21417 -3.68097
C -6.31227 -8.62644 2.19884
C 4.81767 6.88605 5.69663
C 1.12022 10.65603 -3.41423
C -2.85376 -4.48432 -10.23357
C -1.42041 -5.58577 4.59070
C 6.22145 3.52859 3.02039
C -1.21648 1.46563 -0.98088
C 7.71093 -6.71510 3.45755
C -7.88809 6.04375 6.85487
C 5.07838 -2.10969 -7.64931
C -5.22553 6.77319 -5.95007
C 0.85179 7.81773 -0.84261
C 4.32975 2.12746 3.33893
C -6.92380 7.39094 1.36198
C 4.79329 -10.43899 -3.60267
C 8.90780 1.71079 6.87010
C -4.25677 -7.76587 6.64582
C -6.65687 2.46972 9.54907
C 2.47467 5.26712 4.34516
C -3.49900 0.91529 1.72512
C 4.70805 1.79285 -3.01097
C -3.18182 5.25778 -10.22229
C 6.57343 -3.19572 2.48593
C -5.09200 4.95889 2.83208
C -1.09669 -10.16357 1.20136
C 9.48854 -4.73978 -4.22314
C -6.20324 -1.10067 -5.03504
C 7.57072 -1.94012 -3.44522
C 2.57787 6.15745 9.74399
C 5.37747 -3.50019 7.00344
C -0.99278 2.24894 -2.18190
C -9.53081 -2.87731 -5.87883
C -2.92078 9.07353 3.99227
C 6.63365 -0.15064 -9.58185
C 8.31754 0.59915 8.81515
C -5.93877 5.56225 -2.40586
C 1.42177 -5.30243 -3.04021
C -0.69188 4.69020 10.36232
C 4.18747 -8.83199 5.63453
C -8.19859 7.32016 -5.17337
C -7.03860 5.22122 -7.20684
C -8.92648 6.88481 -1.72815
C 5.19882 -4.68202 -9.82817
C 11.25417 -1.27608 -1.13943
C 10.06267 -1.25203 -3.41358
C 2.57022 8.78092 3.38618
C -1.04665 8.66567 2.30800
C -7.39480 -3.40224 0.10586
C -2.03473 -5.58065 -9.95205
C 6.12130 6.30952 -7.88766
C -7.63425 3.54862 1.62335
C 8.50072 6.39042 -2.89967
C 6.33781 4.17824 8.10944
C 6.23714 -7.26998 -5.81783
C -2.91028 1.48028 -10.23201
C -10.22000 -4.11075 -3.79474
C -8.35954 0.56493 9.13045
C -7.86463 1.77853 0.10969
C -4.24367 -4.65836 -5.41516
C -6.77717 9.08267 -2.65802
C 7.15184 -3.44937 -9.20264
C -9.62759 -4.15826 -0.23497
C 11.89551 2.84718 -1.87801
C -5.79888 -6.62526 -5.65143
C 8.64528 -4.77135 4.28643
C 5.02808 2.22878 -1.66170
C -5.25703 -2.15714 -7.45601
C 4.39295 0.86544 5.93745
C 1.71567 9.45948 -5.62848
C 4.86706 -1.10852 11.49749
C 0.22853 5.24832 -2.05459
C 2.05437 -1.07701 -3.34422
C 3.11589 7.60803 -3.38046
C 3.15971 -0.79108 -6.90658
C 4.84457 6.96947 4.17643
C 1.28072 3.45722 -6.32791
C 9.63744 -0.23141 -6.16865
C -0.84732 1.14891 9.95615
C -4.92903 -6.48194 -7.90264
C 5.65309 -3.86987 -5.05714
C 4.46620 9.34118 0.77658
C 10.67090 1.98842 2.65298
C 2.80916 2.66600 1.15008
C 0.30768 -9.88425 -3.91012
C -5.68188 -8.25650 4.69150
C -3.15356 10.40899 3.98747
C 6.19662 7.70462 3.98494
C -1.02280 -11.06096 -2.19221
C 6.34118 -4.32408 1.74962
C 4.29980 -3.65803 3.55400
C -3.79381 6.79173 -2.46109
C 2.60367 -2.09219 6.67668
C 1.70828 -6.58922 -2.40592
C 6.18625 1.19817 -4.90980
C 4.56142 5.66266 8.62879
C -1.32163 -4.53630 -0.83237
C 10.56848 -0.45654 2.60170
C 2.18097 -10.33087 5.88487
C 3.48914 4.01696 -3.42719
C -4.78902 -0.98159 -4.57655
C -11.07766 -0.14157 1.18256
C -10.27549 4.83294 -2.12972
C 7.30540 3.89607 5.82647
C -4.04959 -6.39248 2.50143
C 0.52470 -1.72342 2.26359
C 5.21224 -7.79017 1.90655
C -6.37962 3.55199 2.14082
C 8.34852 7.33455 -1.88346
C 8.19509 8.35089 0.96663
C 2.53295 4.17940 11.25615
C -2.71303 8.22481 5.13378
C 11.26525 -0.34977 -0.00952
C -7.11730 -8.36910 -0.12873
C 0.99142 -6.93349 -9.02166
C -9.59466 1.89650 7.62839
C -8.87780 2.80349 8.47425
C 6.24446 8.52494 -2.22857
C -11.30862 -3.15514 2.35726
C 3.43164 7.54282 3.30275
C -10.10870 -3.16532 3.26295
C -7.49488 -4.84596 -2.21036
C 11.33895 1.07618 -0.28436
C 4.15869 -11.77452 -2.08881
C -1.48647 -10.30896 2.47485
C -4.20757 1.84192 -9.58230
C -4.94712 -4.58615 8.21698
C -9.29719 5.11511 -5.78860
C -5.89955 6.46827 5.85577
C 9.40479 -3.07100 1.67514
C 0.51815 -8.07818 -8.31808
C 1.77680 2.01059 11.31819
C 9.11329 -5.57890 1.77490
C -9.47649 5.13819 -3.32743
C 8.06972 -7.03156 -3.80524
C 7.24888 -6.67374 4.80196
C -8.46021 -3.07949 -6.80701
C 6.69556 7.15571 -4.38150
C 0.68649 -5.53677 1.17899
C 2.59900 7.25145 -5.92913
C -8.47506 -0.04790 3.67820
C 0.24084 -9.26513 -6.15082
C 3.59661 -1.48085 3.20980
C -5.32938 6.40714 3.15282
C 6.53707 -6.30115 -6.79917
C -3.50386 -10.17789 -1.66099
C 6.51393 -1.38395 -4.50933
C 3.12698 2.40198 -0.20930
C 0.07283 -10.94610 -2.79803
C -3.32890 7.62378 -4.86196
C 7.20260 -1.86129 1.89339
C -9.23114 3.47725 3.78445
C 4.10903 -6.87579 -2.69257
C 6.26916 1.28017 10.65759
C 0.49806 8.94855 4.51694
C -4.61906 0.60453 -8.86265
C 1.51369 -11.38585 -2.51839
C -12.00442 -2.30144 1.80277
C 5.12330 -5.92194 9.08462
C -10.56401 -4.19638 -1.39088
C -3.62443 0.91730 10.66550
C 9.78666 -2.66515 -5.36388
C -3.86518 -3.44878 5.13093
C -8.97587 1.99762 -5.95460
C 3.65560 7.55585 6.19258
C 9.99882 -1.48448 4.69682
C -8.84506 6.43936 -3.07541
C -5.41138 9.63314 -2.56318
C 7.08598 -3.16843 -2.97130
C 7.06530 -4.56495 -8.39496
C 6.14943 -8.51553 -3.65991
C -0.68235 -9.55605 -4.94409
C -7.68656 -0.72626 9.17906
C -1.60872 -2.10502 10.48581
C -7.78023 0.78396 2.67333
C 7.87370 -5.44485 5.30251
C -8.99739 -5.17662 -5.70160
C -0.45677 9.47160 -4.62828
C 5.96981 3.09370 -9.65030
C -5.11410 -3.94234 -3.22988
C -0.53981 7.57219 -2.61135
C 6.28381 -2.62179 -5.51025
C -7.68319 5.04893 7.87685
C 5.87601 -4.87578 -0.50094
C 4.22513 -4.31779 10.79715
C -0.00872 -5.04658 -1.14131
C -2.28281 4.16864 5.22473
C -5.24887 0.79505 -7.55960
C 10.71789 0.82545 -2.59080
C 2.35683 4.45029 -4.20739
C 5.09108 9.10212 -4.66011
C -3.95463 -2.34791 -6.71445
C -10.37499 -1.05685 6.49764
C 4.24807 -0.05425 -10.34928
C 8.50610 -5.64061 3.10965
C -4.29689 7.00454 2.26528
C 8.52289 -6.86367 -1.42588
C -10.96837 0.79958 2.26437
C -9.04795 6.50820 -5.96912
C 2.64626 8.59333 5.84643
C -0.76474 -5.62972 -10.42415
C -7.22555 -8.04084 1.25263
C 5.80516 6.82913 -5.38877
C -4.76335 10.41852 -3.44573
C -3.53374 -9.04623 6.79024
C 7.65791 2.53020 5.15128
C 6.57843 -8.16614 1.44684
C 2.85226 -5.61339 -9.79051
C -4.72368 5.64237 -0.38238
C -5.92619 6.07992 -7.03065
C -2.09171 -9.38752 -5.05423
C 6.24945 -4.00651 -3.83350
C -1.05385 5.40687 -4.17667
C -6.80725 4.17279 -0.49931
C 7.10705 4.85718 -6.18712
C 3.27464 -9.61141 5.77189
C -4.97337 5.49386 -8.04550
C -9.97458 2.33742 4.08755
C -4.83952 6.17125 -1.78273
C -1.45872 6.61710 -8.86440
C -0.78069 4.70978 -10.17737
C 1.22568 3.66128 -10.13381
C 3.27931 -4.57085 7.05705
C 1.68449 7.75453 0.43866
C 1.10725 6.20593 9.92815
C -4.98582 -1.40475 4.22232
C 0.59386 -9.16712 -0.32708
C -6.97119 -3.64208 5.24884
C -8.02208 -0.95405 -0.84132
C -1.83054 6.48162 1.47575
C 1.27391 11.42119 -0.80495
C 6.07644 -6.74511 7.08784
C -9.05178 -2.04733 -1.06599
C 4.70961 9.57104 -7.52187
C -1.18083 -7.55545 5.85194
C -0.69415 -5.32635 5.79749
C 1.26633 1.99257 6.60155
C -2.46502 -4.10783 -6.97562
C 1.92848 6.29811 6.62397
C -4.30545 0.26603 6.00441
C -10.01348 -1.98971 4.07446
C 0.30450 3.41074 -3.91232
C 2.96583 -9.54594 0.26247
C -0.32959 -2.57544 -10.80348
C 6.62030 5.06753 -8.46879
C 1.02150 4.05883 2.30929
C 3.32585 2.04060 -6.81654
C 1.38048 -4.09117 8.54601
C -5.14885 -9.63916 0.24815
C -0.06324 10.56016 -2.60097
C 9.01969 2.53001 -3.07171
C -6.45086 -1.36430 9.32900
C 10.19452 -2.47127 -4.03373
C 9.78238 -4.82625 -1.40805
C 2.58863 -6.16807 -1.16115
C -6.21141 -5.50714 3.74730
C -2.70674 3.88602 7.54484
C 7.28991 3.73103 7.21787
C -5.96781 -5.91254 6.12329
C 2.50021 -6.38542 2.41424
C 10.05755 -1.55449 3.32849
C 3.33104 1.31498 -8.16704
C 10.82919 -0.62857 -2.46887
C -8.63614 5.33317 2.22684
C 6.92107 -7.51099 -4.54576
C -8.60652 -7.43398 -4.46091
C 8.43674 -6.74680 1.23163
C -2.44337 0.37565 0.92405
C -2.33421 6.17112 0.23078
C 1.93795 4.87533 0.30830
C -0.38812 -3.41897 -7.60044
C -4.95036 -7.87451 -1.33098
C 0.79488 7.03209 1.55055
C -6.73724 -4.65947 0.05861
C -3.55390 8.94946 1.39991
C 9.69591 -0.36099 5.40720
C 1.69234 -1.91147 8.80893
C 2.33596 9.64876 2.31694
C 7.62828 -1.66307 9.30132
C -5.34623 5.63991 8.18716
C -2.61223 -3.77808 9.32342
C -3.38465 -10.95524 2.01118
C -10.00849 -4.89198 -2.59041
C -4.04765 -10.22288 -0.29026
C -8.42333 -1.53291 8.14042
C -8.37782 -0.01620 -1.89150
C -0.86716 2.13764 7.88872
C 2.21247 3.45845 -8.26655
C -6.93735 -6.60886 3.34158
C 6.65693 -3.64370 10.66258
C -10.02910 -0.15246 -2.02808
C 3.32151 6.38368 8.63819
C 6.70450 -0.91224 4.20145
C -6.36614 0.03430 -7.25046
C 9.36435 -3.58712 4.23762
C -11.27478 -3.07100 -1.85889
C 10.02650 6.27315 3.12955
C -8.61682 -0.71148 -7.02248
C 8.97165 0.38142 7.52915
C 5.86059 5.77182 -6.45347
C 0.91033 7.62087 -2.28782
C 4.95010 1.32529 0.98530
C 6.42337 1.60876 0.88457
C -5.15008 -7.48259 -4.74691
C -10.50878 -2.78170 -3.21672
C 3.58333 -6.46042 3.26833
C 3.68173 8.72427 -2.62165
C 2.25856 -8.27407 -3.91796
C -4.40268 0.19058 2.71041
C 3.84197 -1.94336 -7.45031
C -5.91206 -8.78428 -0.50573
C 7.47394 2.54965 -3.11287
C 6.80303 1.63553 4.46774
C -3.69664 -10.96003 4.71652
C 2.23762 2.23157 -1.24179
C -4.48345 4.00937 3.84078
C 7.61253 -0.94413 -9.26766
C -6.71423 6.73877 2.63924
C 1.85725 0.76277 10.88784
C 2.39222 -5.01242 -0.33570
C 7.46104 -5.14868 -7.19335
C 4.17560 4.71062 -2.51794
C -4.72977 3.76584 5.48402
C 1.44887 -4.69972 -7.48674
C 2.08639 -3.39245 2.24752
C 3.54482 10.16131 -3.28562
C 3.23024 5.21746 10.61876
C 4.63707 -5.81207 -3.50096
C -2.20833 2.39926 -10.98077
C 0.18568 -11.77874 5.18778
C -2.43864 8.47036 2.57020
C 6.52566 -0.59480 -6.65235
C -3.86057 -6.59784 0.44910
C -0.85419 7.79355 -6.59310
C -7.92342 8.60869 -4.94565
C 2.18531 1.39361 3.88142
C 8.08456 4.20008 -1.34550
C 1.52568 8.08616 -6.22342
C -8.66790 3.96283 7.71538
C -0.31825 -1.03183 -0.00044
C -2.99514 1.16544 7.57498
C 0.13927 7.18319 7.73781
C -3.77449 -4.82392 4.27787
C 0.84239 9.90889 -4.69369
C -6.28343 -7.93926 3.43551
C -3.20380 5.60639 -3.16240
C 1.78639 8.44573 6.99424
C -0.70426 -5.19749 8.70859
C 8.94689 3.95894 -4.90617
C -0.10096 3.03341 -6.79288
C -1.89543 -10.60876 0.08480
C 5.56396 -0.74000 -10.37527
C 1.20617 4.31333 11.41225
C 9.52601 -1.52843 -6.15497
C -12.53765 -1.15344 -0.37926
C 3.70500 -2.21127 5.86316
C 3.56770 1.65232 8.06367
C -13.04929 1.11695 -1.44345
C -12.14314 -1.11098 0.96625
C -4.65944 -10.48988 3.93600
C -3.68672 2.43271 -6.34399
C -9.10947 3.76370 6.31542
C 3.43365 -11.41949 -1.00344
C -1.66978 -7.44163 1.95724
C -4.85987 8.96599 -1.32217
C -8.25499 -4.85315 2.73420
C -2.16269 1.51788 3.45029
C -5.35712 4.20948 -8.42834
C 2.94062 -0.12342 -5.64975
C -8.44116 -7.26006 -2.07617
C 10.82381 -2.55236 -1.27614
C 4.28431 2.68325 11.13397
C -8.49820 -1.87692 1.19805
C 6.05667 0.88139 -8.71213
C 3.54955 10.87597 -0.65262
C -3.72438 -8.41584 -6.40116
C -2.14428 0.27284 -9.83939
C -0.98650 -7.70928 -0.62643
C -0.69784 3.29478 10.76143
C -8.01294 5.45763 4.56063
C 5.47425 5.60672 6.18455
C -3.74752 3.42980 -1.97946
C -5.89955 2.57221 -5.95804
C 9.37524 7.18086 0.91925
C -3.83205 1.25995 -0.83295
C -0.27838 -8.57828 -7.30699
C 1.94203 -3.38993 11.24676
C -9.98723 1.05732 -1.03338
C -0.28033 6.14020 3.44867
C 5.71014 0.34985 6.42043
C -5.24167 -5.65597 7.44767
C 1.23346 -1.51579 10.09085
C 2.23924 -5.33899 -4.40134
C -2.93543 6.92280 2.64423
C 2.93336 -8.36385 1.10827
C 0.66679 -0.09891 -1.66144
C -1.23042 -8.90382 6.05976
C -0.43369 0.01310 4.15769
C -1.99636 4.76598 -10.87362
C 6.50220 -0.88883 0.89164
C -3.91697 -2.57706 -10.69491
C 8.98766 -5.96200 -3.60072
C 6.73374 -1.80665 8.05862
C 2.72398 1.25638 -5.59439
C -6.07839 -6.10143 -7.08672
C -4.10554 7.06450 -3.88873
C -7.11490 3.35513 -4.14063
C -7.00852 8.37643 -1.31905
C 1.73259 -3.65725 -10.64227
C -0.69985 -5.54137 -6.46689
C -1.05119 -1.64492 5.74674
C -5.61544 1.16596 7.73885
C 4.23997 -7.93615 0.90972
C -0.41515 -3.99303 6.05704
C 1.47408 -5.68093 -5.41529
C 8.38378 2.08766 -6.73675
C -6.15871 3.86754 9.51205
C -4.79991 -8.44708 -2.63462
C 7.30754 8.12253 -1.42970
C 6.94849 -4.31533 0.34480
C 10.50068 2.03049 0.45558
C -4.52124 2.54323 3.27676
C 5.05634 -5.70342 0.35679
C 8.29018 2.88063 0.37410
C 3.04537 7.30642 0.28795
C -5.80582 0.68653 4.48355
C 3.67797 10.01649 -7.04044
C -1.04386 0.87218 8.59644
C 6.31505 -1.17716 11.18427
C -0.58350 0.00850 -4.79546
C -6.71294 1.20245 6.83808
C 4.48267 5.02831 9.96023
C -5.89035 8.13996 0.82740
C 5.80341 7.54930 -8.28035
C -3.06858 -5.58480 -5.48212
C 4.02593 -1.09179 -3.25691
C -5.45124 -2.18275 2.01818
C -7.90650 2.06271 9.33872
C -9.24780 2.08708 -3.65589
C -12.15857 2.06296 -1.42445
C -10.12698 -1.61017 -5.40297
C 0.79326 -3.02012 -2.64350
C 5.90343 -5.28804 -8.78078
C 6.42084 3.68274 -5.25213
C -3.40889 4.10129 8.81392
C 4.03831 2.19585 1.82254
C -4.10392 -3.46745 -4.21277
C 3.87950 -4.73472 -10.14133
C -8.33232 5.55240 -6.69183
C 1.90709 -3.35570 -7.73073
C -6.38533 -2.37183 0.02289
C 2.24462 6.63000 3.67153
C 7.24194 8.06133 3.37944
C -3.95081 7.36696 -6.11912
C 10.38873 4.71250 -3.00844
C -0.79359 -6.99429 -2.95523
C -1.56523 -7.91450 3.38326
C 6.97734 -5.86684 7.63837
C 6.83998 -8.52396 -2.42161
C 3.86063 -4.33296 4.77266
C -8.05566 -2.36042 2.66893
C -1.73350 2.12455 -3.37073
C 2.27716 -11.29328 -3.67780
C 2.66097 3.52600 -6.91650
C -3.59629 6.85338 5.06682
C -8.11581 7.62229 -0.94529
C 3.75718 -6.61741 5.80197
C 0.06440 -8.24983 -1.27601
C -2.80417 -1.91542 -0.08329
C 7.65972 2.85937 -7.84857
C 3.58708 3.26969 3.86923
C -9.25143 -5.44777 -0.36902
C -2.48628 3.06213 0.29125
C 5.16907 -10.79616 -2.18838
C -8.12638 0.70080 4.99817
C 6.99510 1.03489 -2.91329
C 8.61371 -1.05906 -3.23221
C -2.47235 -11.57202 4.40052
C -8.06895 0.80133 1.18236
C -6.60896 -1.21781 6.04933
C -3.10540 2.20953 10.53294
C 7.54829 -0.96850 3.11762
C -9.20871 3.89328 -0.07473
C -1.28221 2.84433 -5.92355
C 6.71040 -3.70217 6.54269
C 2.65151 0.00979 -7.92422
C 2.88040 -6.08613 9.95161
C 4.94452 1.38648 11.23029
C 4.67674 -4.02227 -0.37583
C -2.36390 1.53363 4.93018
C -6.09123 -2.96080 4.18576
C -5.31032 -1.94660 -8.87471
C 3.77377 2.65174 -3.59346
C -2.42613 11.22750 1.67086
C 3.45219 2.93618 -10.54990
C -3.91917 -3.93100 -6.68398
C 4.29112 -1.82927 8.70243
C -2.97128 -6.37861 -1.81630
C -2.38140 -4.68948 4.36577
C -3.59215 5.94347 6.32184
C -0.49845 -0.96202 -6.94632
C -5.54692 -0.45368 -1.17230
C 2.43222 5.24119 5.86420
C -2.12159 4.04438 -5.79579
C 4.78039 5.96188 2.18859
C 1.56853 -4.27183 3.22594
C -0.31663 2.25121 -8.01795
C 0.07924 3.96705 4.56685
C 0.93003 -8.65801 -3.54783
C 5.37112 5.22641 7.53615
C -3.90731 4.13053 -10.41358
C -0.71314 5.12127 6.72989
C 2.77908 2.61577 8.61874
C 11.41233 3.95304 -2.23408
C -6.78307 -4.54194 2.59743
C 5.76128 3.43304 -1.61536
C 1.58629 11.29530 0.59378
C 9.01145 1.98045 5.43663
C 8.59387 -2.02691 6.32145
C 1.19094 1.49370 -3.52158
C -6.95492 1.68933 3.20993
C 1.16222 6.23050 -7.36461
C 5.83505 -3.30229 -9.97324
C 8.53294 0.40683 0.70268
C -4.90174 0.19745 -3.43005
C 0.73271 -2.11656 -4.92082
C -8.62791 5.82309 0.88139
C 5.43775 1.29606 -6.27515
C -2.08017 8.09997 -4.48029
C -2.67420 7.92080 -1.93253
C -2.92312 -2.49901 10.07432
C -6.39181 -1.41182 -6.61436
C 9.11394 -4.05215 -5.44024
C -3.98555 -5.72313 -8.78220
C 3.51539 -4.25938 -6.46579
C -3.76328 -1.17664 -10.43309
C -5.43504 -3.39032 8.58290
C -3.18467 6.98561 -7.20347
C 5.70151 2.22619 3.65791
C -8.00393 1.77217 -6.95695
C 4.86648 -7.65295 -6.05087
C -7.24441 -0.16866 -2.87848
C -1.24079 0.12732 1.69096
C 9.71438 6.23452 -0.02722
C 7.88323 6.24444 -4.24823
C -3.99508 -4.09234 -0.90841
C -5.50258 -7.34614 5.88235
C -2.96467 4.68151 3.85880
C 7.75832 1.95607 8.81334
C 0.73142 -3.29788 0.15195
