1000
C1000 3000 K last frame of liquid_carbon.lammpstrj
C 0.67897 -0.61185 8.84348
C -0.56101 1.06963 4.49872
C -5.74599 1.73270 10.94585
C 10.71679 -2.53570 3.28240
C 1.37199 3.61655 6.40339
C 6.83661 -5.83832 0.26520
C 3.05243 -4.96069 4.11556
C -5.94998 2.96600 4.28027
C -1.94489 3.38981 11.36992
C 1.50442 -6.41206 -5.20215
C 5.67850 1.72090 1.57745
C 3.92377 5.77772 -5.34372
C 3.93382 2.56255 10.16449
C 2.45082 -5.82503 -5.73790
C -3.38225 -1.13373 11.97250
C -5.48851 -4.38313 6.21942
C 0.98591 -3.87337 -6.68845
C -0.69020 -6.47882 -4.07457
C -7.32317 2.26806 2.80058
C -3.55799 -0.60608 9.22768
C -1.80980 -4.56658 10.82515
C -1.06104 3.01326 7.75791
C 1.39130 1.84620 -4.88005
C 0.22269 1.56150 -4.73919
C -4.70352 -7.92429 1.83745
C 0.49307 -3.25030 -1.01128
C 1.01320 -0.56719 11.65397
C 9.15581 10.77407 8.34305
C 0.11638 -7.33888 -8.45258
C 6.21555 8.68362 -1.67629
C 3.80100 3.98079 -8.51352
C -1.85569 0.13069 -12.74639
C 3.17099 -0.54424 1.02666
C -9.70506 -7.43981 -0.70882
C -10.22784 -2.22825 -5.24623
C 0.34670 -2.74099 7.55560
C 0.37366 0.98154 -12.90741
C -2.98801 5.96350 0.84244
C -2.44324 4.26568 5.63538
C -4.52960 2.87389 6.14552
C 3.09068 -0.48720 7.01550
C -1.96576 -3.23500 -1.07189
C 2.58695 0.64421 7.54769
C -0.66569 -2.31446 -12.19482
C 0.58025 4.60438 -8.59461
C -4.12019 -4.67839 10.59951
C 5.55469 -1.00895 -7.26595
C -0.27877 -2.88944 11.41283
C 1.55044 -1.24101 -12.03834
C -4.21904 3.63412 10.81251
C -6.33295 5.33148 -3.38798
C 0.04936 2.39829 -12.91493
C 9.29868 3.09065 6.68244
C -3.99339 2.58122 -7.83107
C 5.13192 8.83764 2.62913
C 9.92525 9.39155 10.71074
C 11.03805 -0.23122 -6.23321
C 2.93452 0.19758 2.11625
C 7.62005 0.49148 -7.31301
C 4.15868 0.81709 5.31483
C 1.57443 4.48394 -12.11418
C -7.57675 -0.56589 -4.08592
C -11.37468 -1.10074 1.93644
C 4.86609 2.54362 2.31759
C 2.24060 -1.60551 7.18300
C -9.25506 -10.73277 2.16539
C 0.91045 2.86650 -2.85864
C -7.13960 -2.64590 -2.83764
C 1.13992 -5.08282 -9.75570
C -4.42556 4.32123 2.19488
C -7.00250 4.35721 -4.43479
C 2.66227 -7.98535 -8.06372
C 3.76729 0.46847 -9.88327
C -7.09266 3.62498 -0.13702
C 1.94462 10.63574 -3.24472
C -1.51933 0.05186 4.31709
C 1.56976 -2.37067 -3.14438
C -4.73463 9.17206 2.87085
C 3.78285 3.68410 -6.98346
C -3.62877 -5.40038 -1.70701
C 0.72344 6.61068 1.38681
C 1.56101 10.36420 1.97682
C 3.67790 1.24990 -4.30462
C -1.28902 6.14215 -5.48652
C 0.47971 -0.88151 -4.50285
C 8.32402 3.98196 6.02359
C 3.76560 2.91738 4.48926
C 5.18735 0.99917 -2.25865
C -2.61379 6.06903 -4.96905
C 9.28235 -7.56615 -0.89745
C -7.51634 -2.54549 6.70235
C -2.91923 -0.95262 -12.67204
C 0.60048 -3.41346 0.32308
C 1.08022 -6.34989 2.67152
C 3.52220 -1.04045 -1.38971
C 9.28403 -3.49442 5.50722
C -4.73068 -0.62566 11.39442
C -1.06072 -4.51012 -10.71818
C -6.37418 0.34006 -6.02033
C -8.35948 -3.50875 -6.90379
C -2.66253 -0.87743 2.30754
C 13.00974 2.30248 -4.60112
C 4.61134 -5.41497 -9.79959
C 0.93833 1.63494 2.69135
C 5.72174 1.60156 0.02289
C 1.02461 6.06073 9.97521
C 10.23264 -6.69656 -5.69285
C -3.25598 1.92580 8.45980
C 5.04558 -2.40839 9.74963
C 0.90462 1.96975 8.15027
C 9.88947 6.03688 -3.92516
C -1.60555 -5.86282 10.23871
C -9.88286 4.83229 -0.06481
C 2.49088 -10.86364 -0.14039
C -5.95783 -1.48481 -9.90583
C -1.18693 0.76815 8.84581
C -7.77018 5.18382 5.25604
C -2.83859 -1.51307 4.46663
C -2.59583 4.71405 4.19108
C -1.58377 -0.11454 -4.01124
C -0.44854 -0.06579 -12.70737
C -3.12984 -7.94050 5.29947
C -3.02379 -0.58663 -8.25468
C -4.38084 1.27168 -11.84744
C 2.48842 -1.88022 -0.79095
C 3.30342 7.54898 7.48851
C 8.59134 -2.08824 0.89617
C -2.69015 -4.14361 -5.24027
C -5.52553 8.66852 -5.46857
C 2.59323 -3.53409 10.13623
C -3.17826 -5.70829 -8.71427
C 2.37063 6.65197 -4.02680
C 8.83527 -6.75568 -6.08911
C -10.77792 2.47011 2.80252
C 3.80955 6.11427 -9.67487
C -4.05958 4.98741 1.03956
C -4.05206 -2.69607 8.27311
C -1.94081 -5.82146 0.67643
C -1.76663 6.40701 1.65135
C -2.36312 -4.04113 -10.66703
C -2.33090 -2.05271 -0.97757
C -5.53687 -7.79283 -1.28016
C 6.00585 5.60367 -6.58266
C -1.85809 10.62809 -3.32996
C 9.85894 -0.12847 6.79575
C 1.75891 3.01598 -3.97235
C -6.71728 0.60661 4.96868
C -2.30900 1.46602 -9.14819
C 0.54363 4.79981 -7.01010
C 5.76659 -9.21956 -5.82502
C -6.03795 -6.35819 2.75287
C 2.30562 -8.21359 5.12685
C 10.24262 5.89770 -2.40955
C -1.53437 -5.48776 3.28363
C 6.07638 4.86470 2.05163
C -1.77357 -3.68072 7.33501
C -5.79415 8.68382 0.64188
C 5.42984 -6.56381 0.05213
C 11.33662 -1.94517 1.99192
C -0.24798 -3.43751 -11.45708
C 11.31296 1.97643 2.38514
C 7.27980 -5.55958 -2.46802
C 6.30941 -1.23848 3.84694
C -10.89584 -3.78787 2.24324
C 3.31347 -10.54044 -2.93889
C -4.70028 0.04298 8.57700
C -6.87603 -9.77813 6.19570
C -7.89918 -4.05144 9.66899
C -4.43444 -6.06766 -7.97115
C 3.09748 -9.97448 -5.32531
C -8.39675 6.12977 -2.39069
C -2.62772 -6.50534 9.66082
C -7.97787 -2.94985 2.12974
C -0.17272 6.38439 -4.74775
C -3.04985 -3.48431 2.93664
C 4.32061 6.01698 -0.24424
C 1.79430 2.00054 11.76365
C -0.27358 10.14368 3.61312
C -3.33824 -4.53559 -9.60985
C -8.81550 5.70013 2.99667
C 2.10843 6.73099 0.84140
C -7.81005 -0.74188 -1.62106
C 12.87835 2.89962 -2.24516
C 5.30584 5.23574 -5.35001
C -4.50562 4.99914 -10.21445
C 6.00929 -2.11520 8.77710
C 5.12641 -3.51931 4.26458
C -8.52270 -0.58877 2.33626
C -7.61993 7.54587 -4.70918
C -7.43214 -2.01810 -1.61477
C -4.47340 -7.40571 8.27389
C 0.26528 -7.36215 -3.13744
C 5.24607 8.32146 -6.29291
C -10.15032 3.97567 -1.26013
C 9.03790 10.56852 2.50512
C 3.52220 -0.68205 -2.67902
C -3.09503 -1.91717 3.16942
C -7.77336 -10.11437 5.28728
C -7.88686 -3.67916 4.62331
C 11.17664 3.01118 1.43024
C 6.09245 4.58007 -1.56615
C -9.34601 0.59857 -7.38451
C 7.46837 6.72334 -4.96860
C -2.28683 -6.04043 -2.03197
C -8.66382 0.62145 8.78093
C -3.82589 4.24967 3.76558
C 8.19995 -5.99966 5.18577
C -11.06476 -0.41129 6.36806
C -8.23379 -0.77442 0.77593
C -1.45315 -2.70541 -7.23529
C -8.40842 3.92712 5.33557
C -5.11773 6.95741 7.50277
C 3.83814 6.19122 -1.49479
C -1.10577 5.54462 10.54739
C -11.30376 -0.89564 0.55177
C -4.05400 10.36789 -3.24141
C -2.67511 0.08181 12.34309
C 1.90800 -6.97705 7.12797
C -6.29133 -6.57087 -4.95933
C -3.71421 -2.90519 0.70683
C 10.60355 0.95431 5.90361
C -2.95546 6.32307 -0.70817
C 7.40069 -9.29165 -1.00499
C -0.02013 6.89583 9.20350
C 4.86226 3.08728 -3.66755
C -8.34658 -1.32055 3.74478
C -0.07841 -9.42829 2.05383
C -11.09322 -5.02467 4.63323
C 0.53416 1.22333 3.82425
C 4.51242 0.06632 10.06051
C -11.52111 0.44028 -0.02047
C 4.29624 6.76288 6.98996
C 12.37027 0.69412 -1.05179
C -10.38471 2.56922 -6.10194
C -9.42917 -6.58572 7.37500
C -1.05903 6.24988 -10.03683
C -0.70134 10.39149 1.25542
C 3.90607 -3.88504 4.75905
C -5.91336 4.74290 8.58607
C -2.03622 -7.91722 -7.85765
C -1.69429 10.66258 0.28361
C -3.19155 10.27572 0.68032
C -1.35566 -5.98430 1.91958
C -9.99157 1.67429 5.40078
C 0.10524 -5.81634 -5.18089
C 6.27629 -9.58581 -0.60711
C -0.45645 0.19680 -4.59555
C 4.22351 -0.45070 5.91813
C 4.01698 9.62348 -2.37786
C -5.13938 4.88512 -0.00874
C 4.09872 0.53323 -3.06251
C 5.42518 -9.57874 -4.42545
C 6.62257 2.67125 -7.07175
C 10.61995 -1.72575 4.36117
C -4.67117 1.29573 -7.63706
C -0.85452 -8.85053 5.59707
C -2.02294 4.59225 -7.49251
C -11.37552 0.41953 -1.38232
C 6.20719 -5.91034 -4.88575
C -6.59016 -6.73390 -0.93239
C -0.36920 2.97365 11.55058
C 1.03161 -3.03833 -10.99782
C 0.57267 7.50510 -1.04732
C 10.16470 2.69867 4.60321
C 5.41772 -4.58181 -10.08558
C 7.62537 0.12155 1.62776
C 3.81338 -8.01874 5.19322
C -9.72742 -8.43347 -1.62035
C 2.19652 -8.89390 3.83118
C 1.13215 -10.03250 -3.85431
C -0.51232 -5.11510 5.79814
C -9.02410 6.03863 -5.80266
C 6.85846 -3.32783 -7.17248
C -6.85943 -3.43426 -8.63726
C -0.97716 4.36103 -12.02492
C 9.24780 -8.08317 1.30967
C -9.10889 -9.53376 4.85576
C 3.97692 -9.88969 -4.12837
C -1.47616 -0.38497 11.90301
C -6.98811 -5.30107 2.97871
C -3.39321 -9.15357 -1.31335
C -9.84961 4.92875 -5.14407
C -7.62420 -4.35286 -7.84799
C 0.25329 -8.34084 6.44105
C -4.98277 -6.60549 9.20422
C 4.53562 -5.80571 2.35785
C 11.68795 3.06719 -0.01892
C -9.58293 2.09071 -7.17248
C 4.45330 1.52040 -7.48609
C 4.65736 9.49396 0.06619
C 9.80565 4.31884 -5.81796
C -3.01938 10.10614 -4.13051
C 11.80211 0.04719 0.17308
C -1.98320 -8.61750 3.13156
C 8.78782 0.41454 7.74656
C 9.41672 8.66820 0.56746
C 11.69969 -1.95088 -0.44493
C 0.92167 -2.10878 11.45036
C 8.98507 7.77806 -1.88988
C -0.77336 8.82578 -7.09223
C 11.17333 4.73914 -1.82253
C 5.50128 -4.49106 7.51405
C 3.73436 -6.07096 -5.05637
C 2.29233 2.19527 -12.82321
C 2.62934 -7.28177 -3.22177
C -3.63752 6.22642 9.45378
C 2.39079 10.59451 -0.52660
C 6.78060 -4.35253 -9.98569
C -4.83764 -3.73692 -9.64544
C 11.26259 -5.75178 -5.45560
C -3.06715 3.88310 -11.78171
C -10.63648 1.51963 -4.78774
C 0.98461 4.98384 4.65643
C 0.62679 8.81184 7.41441
C -0.25738 -7.71511 7.82778
C 2.12327 -10.22340 0.99769
C -1.35099 0.96708 1.86507
C -5.79778 3.79773 -6.59109
C -1.01839 4.57242 5.97407
C -1.32461 9.54978 5.94347
C 4.83828 -5.33031 -5.41678
C 8.49793 8.44508 -0.75225
C 6.40347 7.95665 -5.24882
C 1.43914 0.66287 8.29865
C -1.86801 1.10690 -0.79387
C 11.06709 -4.67230 -1.22876
C -2.30135 0.46880 -1.90595
C -4.98050 5.75950 -5.16916
C -7.04722 -5.93173 -1.77897
C 1.53942 9.19941 6.58657
C -4.81093 0.71292 11.59258
C -4.66962 -8.56499 -3.49753
C 5.84646 0.36184 9.36659
C -4.03157 -5.23022 -0.50469
C 6.77503 8.12123 0.81942
C -0.53190 10.47219 -3.70366
C -9.91968 -1.07598 8.31862
C -4.41020 -8.12252 3.35351
C 11.53173 -0.50120 2.55276
C -1.50378 -6.11018 -0.77183
C -4.44067 -8.34531 -4.89567
C 0.76538 3.74937 -1.68309
C -10.17203 -8.82292 2.66556
C 4.30654 -7.23996 5.97887
C 9.82601 -0.06585 -7.06092
C -9.06021 4.20092 -7.33667
C 2.34289 -6.67562 2.45210
C 1.82892 7.29974 -0.39106
C -10.48934 0.25910 -4.95401
C -2.09800 -2.12311 -12.13726
C -7.67820 1.06684 -9.10145
C -8.17033 -1.40060 -8.33448
C 5.09173 -7.97913 -7.75581
C 11.78240 -2.67163 0.86519
C -9.62079 -10.39129 -0.45251
C 1.56205 -6.62882 8.40490
C -5.80938 -0.85804 8.12253
C 4.30719 -9.87407 0.62133
C -3.93661 -5.78892 9.90637
C 8.67982 6.63577 1.88315
C -4.20245 8.24497 -7.27302
C 7.86573 -4.07633 1.66185
C -4.18643 10.23909 -0.53412
C -0.29024 2.42901 -3.53370
C -6.93884 -4.99810 0.56830
C 1.55044 -3.79707 -9.96624
C 0.43362 5.10811 -11.65187
C 7.60709 -5.31806 6.20069
C 11.15667 -0.46814 3.97567
C -7.17823 -4.79216 4.30588
C 11.91263 -5.34528 -3.30818
C 9.58830 3.41172 9.38565
C -8.74355 -7.53892 6.52681
C -0.94683 -9.52526 -5.24396
C 7.52528 2.05136 9.00729
C -11.54879 -1.68057 6.20989
C -7.67010 2.05583 -5.30133
C -10.44928 -6.56296 1.20401
C 1.53942 -7.44422 -8.84813
C 0.60411 10.43466 -2.73250
C 0.53034 7.35620 -2.44235
C 4.46199 -1.32185 10.53851
C -0.97036 -9.49726 -2.67915
C -4.94090 -1.46919 -6.99772
C -7.33231 -6.59499 8.25807
C -10.59292 3.83889 2.27196
C 6.30176 -3.18917 7.74598
C 5.92236 -5.47253 2.68682
C -6.72486 3.42079 -9.32690
C 1.57261 5.25927 -6.09618
C 6.29230 -7.41375 4.93102
C -0.20312 3.68565 -8.90997
C 3.24424 -1.37487 11.15756
C -10.89914 -1.80950 -0.45874
C -0.23236 -6.04283 9.90066
C 3.49082 7.93078 -7.96493
C 1.50059 -8.06003 6.20834
C 9.91112 6.75880 -1.57160
C 12.78098 -1.28321 -3.92282
C -1.17150 10.50318 -0.94710
C -4.64239 1.38428 8.10684
C 8.37354 -1.72070 7.19272
C -5.21004 2.85632 10.74419
C 5.74067 3.99369 8.88918
C 5.04752 0.67085 -0.82420
C 0.61882 7.61853 -8.55831
C 8.46831 -8.67862 -0.27386
C -9.54144 2.14451 6.64303
C 3.38892 10.04417 0.30163
C 8.37283 5.53444 2.49812
C 2.72534 0.94504 11.52439
C 3.28631 -9.56798 1.58614
C 3.69871 -3.93022 -6.83463
C -2.91476 1.31019 -12.45735
C 9.01664 11.03783 5.82446
C 1.96653 -7.12789 1.17433
C 11.42115 4.03621 -4.19546
C -9.91054 5.02552 -3.79577
C -4.09134 6.33227 -1.59364
C 0.67366 -5.13811 10.49936
C 4.58204 9.39096 -3.65012
C 1.74128 -5.13869 4.90120
C -2.69002 7.08259 9.09162
C -4.78357 8.38460 5.11220
C -7.48309 -2.81677 10.08761
C 0.59224 10.73796 0.94913
C -5.01110 -3.84426 -3.49357
C 2.01275 10.09305 4.36681
C 1.64755 2.69556 7.31491
C 3.18810 7.42024 -9.09413
C 2.46385 0.07753 -12.26652
C -3.57367 -9.05543 -2.72692
C 2.87339 4.53087 -11.34293
C -11.12401 1.81872 -1.99249
C 5.51528 4.98384 -0.38464
C 9.55551 7.15778 0.87900
C -6.09324 4.81051 -5.54590
C -6.17971 4.43830 0.67007
C 11.23226 -5.79411 -2.11409
C 13.81833 0.50633 -3.09142
C -1.37530 -3.62108 -6.14142
C -9.04802 -5.38106 -3.38856
C -4.76705 3.43259 4.91404
C -6.47880 2.49591 -6.47240
C -8.34399 6.49893 -0.99015
C -6.90526 -3.95686 -0.49128
C 2.87800 5.66285 -10.49208
C -5.26241 -6.56711 5.07253
C -10.80826 -1.41104 -2.87718
C -0.36388 10.01585 5.05548
C -6.57467 7.28295 -7.17961
C -10.56926 -5.95584 6.82979
C 4.72873 7.92190 5.79536
C 1.10939 9.87175 -5.62427
C -4.25249 -7.01237 -6.89109
C -2.08737 -8.25462 6.15933
C 10.34854 4.40220 1.53882
C 2.10473 0.85604 2.77264
C 9.21681 -7.66928 2.65155
C -6.75157 5.76093 6.50341
C 8.25018 -3.84005 -8.03228
C -3.14442 7.76549 -8.07765
C -0.79307 7.35983 -0.46476
C 6.40768 0.62794 2.22976
C -6.90487 3.71593 -1.52033
C 6.18988 -9.21166 -3.03236
C 9.78770 2.75662 8.12648
C -6.28790 -6.14823 9.19028
C -6.76116 1.06762 10.44316
C 2.76598 5.00303 3.10161
C -6.48632 3.43706 2.96879
C 5.53544 4.31605 -4.20227
C -4.19583 3.82645 -10.94356
C 7.27526 -2.13970 2.83908
C -6.79669 7.04752 4.11569
C -1.59855 -9.08545 1.77373
C 10.36721 -7.84624 -4.81834
C -7.22302 -1.88508 -4.08877
C 9.21104 -4.51576 -2.91711
C 2.49976 6.18162 9.50421
C 1.38015 -3.52268 6.63655
C 1.87980 -0.47534 -4.38760
C -9.62973 -1.60615 -6.26050
C -2.74719 7.95509 8.04623
C 3.58514 -0.77961 -9.37947
C 7.76791 3.36154 9.54686
C -6.47660 7.78383 -5.94585
C -0.70601 -3.12487 -1.77229
C 0.38280 4.92576 10.62485
C 7.02693 -8.68037 3.00444
C -5.36879 7.55598 -7.73150
C -3.47987 6.00343 -10.05952
C -7.40057 7.50205 -0.80093
C 3.67012 -6.21409 -9.06224
C 12.00649 -3.65524 -1.98964
C 11.89104 -3.55354 -4.57364
C 3.80197 9.50505 2.80317
C -1.17876 10.17045 2.53163
C -7.69136 -2.14210 1.03638
C -3.19939 -8.60019 -5.51245
C 4.32450 5.31664 -8.63836
C -8.36207 1.50375 -0.57334
C 7.42818 5.59881 -5.85361
C 7.22451 5.28877 4.46676
C 6.88490 -8.31770 -6.09235
C -4.23680 -2.38408 -11.34695
C -9.96175 -3.23021 -4.35551
C -6.95654 -0.44785 10.39227
C -9.08523 5.97018 0.18553
C -7.76241 -6.02488 -3.05920
C -5.96159 9.34092 -1.79154
C 8.97178 -4.62744 -7.06961
C -10.65048 -3.04430 -0.36461
C 13.58536 -0.05023 -4.37800
C -6.85023 -6.98483 -3.68907
C 9.74842 -6.45309 3.17019
C 5.57530 2.35330 -2.62885
C -4.89474 -3.01487 -4.73401
C 1.08431 -1.52409 8.04332
C 1.59711 9.04371 -6.78672
C 6.49189 -0.75958 8.81684
C -1.17954 2.16357 -2.62580
C -2.00025 0.27796 -9.11377
C 2.85395 7.09205 -1.52259
C 2.08030 -2.80018 -8.77319
C 6.26339 5.62960 6.71479
C -4.40294 3.71800 -7.15640
C 9.13889 11.53806 3.25673
C 0.24856 1.69484 11.49755
C -6.99238 -5.73039 -5.93957
C 7.70866 -5.75548 -5.00470
C 4.90031 9.19358 -1.42206
C 13.34273 1.97753 -3.31077
C 1.36071 5.25078 3.25647
C -2.35431 -9.37079 -4.81127
C -10.56926 -2.40638 8.30838
C -4.04843 8.18294 7.35724
C 5.53777 7.37312 4.83560
C -0.86742 -9.63008 -1.15667
C 6.08565 -4.29504 3.55822
C 0.99232 -5.75599 3.95428
C -2.95495 6.65288 -3.68259
C -2.88986 -4.78399 5.30407
C 4.73716 -6.80073 -1.29837
C 5.43373 0.36197 -7.57567
C 4.78642 5.08924 8.66217
C 1.46397 -2.67766 1.05039
C 11.54392 -3.99951 1.09356
C 4.53887 -8.43509 3.72825
C -0.45580 6.79983 -3.23370
C -3.91412 -4.75456 -3.13537
C -11.69016 1.60240 0.88302
C -7.28959 5.87832 -7.75076
C 7.46960 7.71350 1.99789
C -5.47283 -7.21987 3.83851
C -3.43236 -3.81937 1.44697
C 6.85210 -8.93072 1.70450
C -7.82431 2.38221 0.28866
C 8.27819 7.82188 -2.97344
C 5.56467 9.09790 1.07080
C 2.80053 3.64106 9.95985
C -2.63343 9.37015 5.61256
C 11.98724 -2.34422 -1.78305
C -9.51766 -9.82805 3.45638
C 3.44629 -9.64713 -7.02417
C -9.53652 1.12830 7.70910
C -7.37756 2.96535 8.82345
C 5.85255 8.59028 -3.88199
C -11.36592 -2.33968 2.64753
C 0.45035 5.95099 2.49170
C -11.09646 -1.82162 3.94864
C -10.01089 -8.81060 1.37787
C 12.63643 -1.42524 -2.51956
C 4.10780 -10.45397 -1.65412
C -0.75968 -8.76354 3.95370
C -4.83867 0.03229 -11.42260
C -5.43620 -4.02635 10.32641
C -6.58135 4.93860 -8.63493
C -5.86377 6.84482 6.37480
C 11.29669 -5.02928 0.05757
C -0.18387 -9.06509 -6.55473
C 3.78362 1.34610 10.66038
C 10.68658 -6.20521 0.81411
C -8.47752 5.55719 -6.93218
C 10.86413 -7.15887 -2.30830
C 8.18906 -8.13645 3.57987
C -8.83197 -2.29547 -7.19069
C 5.15843 5.88098 -7.70428
C 0.02978 -6.49108 1.89968
C 1.57384 6.65956 -10.41682
C -11.37189 -0.03973 2.63690
C 1.72053 -9.92982 -5.04450
C 4.54801 -1.73476 5.32241
C -5.90065 7.48623 5.09106
C 6.37300 -7.29526 -7.21241
C 0.91000 -6.96266 -1.69437
C 7.70808 -0.97984 -6.89381
C 6.56183 2.73245 -0.22564
C 0.24434 -10.20667 -0.53043
C -2.91152 9.56131 -5.40109
C 7.76882 -1.25761 1.81068
C -9.21500 3.62984 4.26413
C 7.62374 -8.97681 -2.43457
C 8.80383 1.72842 8.28906
C 1.06350 10.28680 3.31585
C -5.85223 -0.23368 -10.51250
C 1.48575 -10.33334 -1.11460
C -10.68503 -6.41407 2.60320
C 4.48830 -4.75385 8.35991
C -9.03817 -4.51238 -4.41670
C -3.39036 1.14321 11.85550
C 9.92480 -4.03562 -6.16067
C -1.84694 0.00623 2.82340
C -8.91222 2.82903 -7.99215
C 3.64679 8.92697 5.49743
C 10.30433 -3.80887 3.32084
C -8.87307 6.86193 -4.83176
C -6.12708 9.03885 -4.12688
C 9.40784 -4.15988 -1.55319
C 6.06503 -4.57403 -7.10558
C 9.07569 -8.61270 -4.51043
C -0.25978 -9.83155 -3.79804
C -7.97697 -1.51035 9.98895
C -1.49088 -1.86927 11.47007
C -8.15886 -2.64525 3.50124
C 7.67670 -7.39560 4.84344
C -8.17960 -4.75372 -5.50662
C 0.47180 8.43036 -7.61645
C 3.41336 0.82947 -11.38234
C -6.23799 -3.63606 -2.80925
C -1.65313 7.06891 -2.70961
C 6.76984 -1.80717 -7.10079
C -6.70231 4.71937 7.39918
C 8.52296 -4.27792 -0.65988
C 3.41252 -6.71944 7.10262
C -2.91288 -5.02863 -4.05597
C -2.50054 3.03996 7.61355
C -5.83246 -1.04914 -5.90923
C 11.13891 -1.65685 -5.77647
C -0.77466 5.26524 -6.59524
C 3.86828 8.97850 -5.93347
C -3.68432 -2.23597 -6.55674
C -10.23971 -0.03623 7.44825
C 2.13332 -2.10276 -10.95102
C 10.52939 -5.86716 2.19307
C -4.22429 8.87018 4.03583
C 9.78089 -7.95806 -2.01194
C -10.93680 -4.88459 2.97171
C -4.93422 7.06294 -8.82103
C 3.23296 9.66412 4.30432
C -3.10067 -7.91677 -6.92525
C -10.38575 -5.40038 0.15480
C 8.60463 6.92267 -3.91751
C -5.51632 10.09357 -3.05071
C -5.03204 -8.09121 7.08337
C 6.63864 7.10767 2.91778
C 7.93735 -8.51320 1.07100
C 2.29175 -8.99457 -7.32890
C -5.10004 5.32364 -1.49893
C -3.65671 7.26104 -9.36923
C -2.42263 -9.30480 -3.53104
C 8.43272 -5.12372 -3.89787
C -3.64556 5.42502 -5.67911
C -9.24210 6.23873 -3.35420
C 10.27879 4.80869 -4.62977
C 5.92379 -8.45661 3.91390
C -4.16965 -0.03662 -7.80832
C -9.90412 2.40620 4.25629
C -5.22352 6.08886 -3.97663
C -2.04569 4.86360 -11.52495
C -1.01074 3.08676 -12.71787
C 1.18433 3.07892 -12.55018
C 2.33077 -5.72494 9.08313
C -0.55310 6.62916 0.65808
C 0.88803 7.75485 8.42804
C -2.86983 -0.70364 0.96949
C 0.74879 -9.82357 0.91199
C -6.20013 -3.17705 7.26066
C -8.23561 -0.07227 -0.29532
C -5.19182 1.81483 6.89363
C 0.18840 10.66510 -1.42919
C 5.59397 -6.47766 5.81467
C -10.99456 -0.93356 -1.61069
C 4.94426 7.49790 -7.34847
C -1.95695 -7.65243 7.56603
C -1.65877 -4.76396 6.42769
C -0.78600 -0.53659 9.04339
C -5.93935 -4.35240 -8.78175
C -0.46727 5.27230 4.96414
C -5.27551 -2.31822 8.06322
C -11.18818 -2.47140 5.13158
C -1.09682 2.43316 -0.99345
C 5.57142 -9.59359 0.65912
C -0.33400 -5.29693 -9.83530
C 10.31230 10.55763 10.67127
C -0.02428 3.34100 -0.68211
C 4.02431 2.85230 -9.36904
C 0.25141 -6.70207 8.70684
C -10.38847 -7.38640 4.68645
C -2.12749 10.75300 -2.05135
C 11.83452 0.90336 -5.90761
C -5.83311 -1.34862 10.94287
C 11.14643 -4.37431 -5.51602
C 11.88599 -6.18875 -4.24298
C 3.31029 -7.05490 -0.96960
C -6.17193 -5.42449 5.39638
C -2.30893 4.79307 11.06500
C 8.24565 4.38204 4.74641
C -8.99357 -4.39746 9.05914
C 3.26518 -8.93863 3.06959
C 10.98094 -4.46007 2.37937
C 0.21530 -1.22383 -12.37127
C 11.88274 -2.15468 -4.68649
C -9.79218 4.55031 3.29193
C 8.18750 -8.05724 -5.68002
C -9.63297 -5.10991 -2.01933
C 9.91073 -7.26894 0.34700
C -2.11881 0.59805 0.65205
C -6.52327 7.51210 2.75585
C 2.04575 7.11318 -2.88198
C -2.06034 -6.51026 -8.62002
C -3.98101 -8.71149 1.01214
C -1.12489 5.93880 2.74522
C -7.38819 -4.46545 1.74994
C -3.55034 9.80031 2.05811
C 11.89558 0.65950 1.75396
C 1.91169 -4.79177 9.97709
C 2.94820 9.78599 1.61985
C 9.84519 -2.10165 5.46878
C -5.16790 5.96531 8.71630
C -2.98956 -3.87149 11.25298
C -10.89700 -4.72707 7.59105
C -10.26706 -3.72395 -1.56927
C -2.27723 -9.44028 -0.65443
C -8.84169 -0.76580 9.24959
C -7.82800 0.04732 -2.71830
C -0.45651 1.84918 8.71643
C 3.38711 2.15028 -11.94001
C -11.50633 -2.63676 7.29786
C 7.74866 -3.04138 7.18255
C -10.78447 2.59425 -3.40366
C 2.37569 7.03177 8.52047
C 11.56337 0.72271 4.85654
C -6.53208 0.96190 -9.83355
C 9.39877 -5.73875 4.29894
C -10.36656 -2.88263 -3.06283
C 12.05212 3.12404 -5.06045
C -8.34295 0.16219 -8.23692
C 8.69953 3.74010 10.39402
C 7.88524 3.36835 -7.39307
C -1.88201 7.06269 -1.44196
C 6.93527 5.67024 3.05818
C 9.52601 -1.28626 0.53939
C -5.71766 -7.81176 -2.92495
C -10.66047 -0.92779 -4.30210
C 3.30440 -5.81401 2.84498
C 3.50320 9.61706 -4.70510
C 3.70312 -6.60244 -3.77749
C -6.08552 0.82013 6.02794
C 3.43767 -2.91310 -7.75257
C -10.70468 -7.62066 3.38080
C 9.12178 2.38604 -7.12801
C 10.55856 5.07375 0.29884
C -6.41761 -8.58249 6.89940
C 6.21808 3.23352 -1.62216
C -5.86221 4.24876 2.12436
C 4.46925 -1.44656 -7.86569
C -8.49703 6.23783 1.53610
C 2.45626 -0.46043 11.56860
C 2.39935 -1.82726 0.59320
C 6.77736 -5.98935 -7.08724
C 4.45576 6.14364 -2.89539
C -2.62941 0.80153 9.27351
C -0.66219 -8.19401 -7.57593
C 5.36612 -2.16609 4.34477
C 2.08276 10.07522 -4.53280
C 3.13398 4.94152 9.22852
C 6.16428 -6.04179 -3.28614
C -4.21852 -1.22345 -11.94331
C -10.85001 -6.22096 5.40837
C -2.45666 9.96321 2.96601
C 8.75489 11.63646 4.55213
C -5.80569 -6.90438 1.56844
C -0.86411 6.94763 -8.78914
C -7.10414 8.33261 -3.52754
C 3.56446 2.07353 5.60361
C 5.56416 5.23458 -3.03690
C 1.79949 7.60991 -9.42971
C -7.41664 3.36628 7.44508
C -3.23822 -5.14842 0.72848
C -1.44103 -1.90252 8.87745
C -0.81504 9.15287 7.09834
C -4.28639 -7.33059 5.71932
C -0.29199 10.01073 -5.16177
C -11.73217 -3.90202 6.76911
C -4.29910 6.79367 -3.07074
C 2.83158 8.43639 6.56901
C -0.43570 -4.12961 11.23872
C 10.02086 6.35295 -0.07836
C -0.55718 -1.58658 -9.16861
C -2.52563 -9.28652 0.76860
C 2.54643 -1.72426 -9.67565
C 1.89173 3.19450 10.85782
C 9.94943 -2.27512 -5.99259
C -9.92727 -5.97898 -0.94075
C 3.59357 -2.85936 5.63849
C 3.04303 4.14090 4.38379
C -11.10417 2.71170 0.33566
C -11.78442 1.22384 2.20999
C -7.54000 -7.66468 7.20880
C -5.97066 1.32911 -6.82516
C -8.22005 2.93489 6.45460
C 3.81817 -10.56644 -0.36747
C -3.11266 -8.33636 3.89004
C -5.31648 9.50116 -0.45277
C -11.31206 -3.96989 5.47760
C -0.56794 3.17051 0.75596
C -5.98187 2.28258 -9.93150
C -0.23741 -2.14146 -8.14565
C -9.77655 -7.67252 0.72686
C 12.32289 -4.03601 -3.37961
C 5.19811 2.77698 9.45897
C -9.52336 -9.69549 -1.47625
C 9.07278 11.01391 7.18190
C 2.99461 10.47291 -2.22351
C -5.19403 -7.39573 -5.55394
C -3.06748 -3.03172 -11.48334
C 0.00210 -6.46476 -0.70512
C 0.57105 3.64371 11.00341
C -7.76357 6.00719 4.05644
C 6.27344 6.05749 5.38925
C -6.33165 4.99447 -2.05530
C -7.33717 0.53388 -5.10323
C 11.86809 3.99090 -2.85624
C -2.24767 1.20414 -3.16862
C 1.17985 -9.24711 -6.15315
C 2.13099 -2.52643 10.89043
C -10.11966 3.70880 -2.92281
C -1.41821 5.32656 3.89225
C 2.31560 -2.53369 6.15525
C -6.39991 -4.86573 9.90734
C -0.12929 0.16517 11.85492
C -0.29660 -4.48270 -5.87695
C -2.82854 9.34053 4.21584
C 3.29376 -6.96888 0.53440
C 2.47817 0.58081 -4.71689
C -3.01996 -7.32443 8.42460
C 4.92216 0.92203 4.20657
C -2.41355 2.64176 -12.37205
C 8.37931 -3.48735 0.60039
C -5.53506 -5.38606 -8.00188
C 11.34829 -7.48143 -3.81094
C 9.45672 -1.36683 6.47871
C 4.41214 2.58491 -6.50079
C -6.74522 -5.40654 -7.34452
C -4.21418 8.84354 -5.86217
C -7.55497 2.93761 -4.29043
C -6.88031 8.29586 -2.05154
C -0.61157 -6.13922 -9.04558
C -1.88111 -6.04666 -3.50083
C -2.61094 -0.40448 5.19355
C -3.31179 -3.55198 7.40028
C 4.43690 -6.51610 1.14600
C -0.93088 -3.15268 8.36574
C 1.52108 -7.28294 -4.03827
C 9.37861 9.67864 1.55016
C -6.22308 3.66122 9.48016
C -4.53239 -8.45155 -0.63304
C 6.78430 8.44988 -2.91659
C 7.33023 -3.45254 2.90352
C 13.14256 0.05108 -2.02483
C -6.75617 1.71383 4.02338
C 7.12552 -5.45470 1.64636
C 12.19467 2.15728 -1.08958
C 3.61470 6.23880 -4.01798
C -7.69253 -0.57737 4.95215
C 2.93595 8.59248 -6.91300
C -2.82051 -1.77456 9.04650
C 7.85445 -0.64582 8.02186
C -0.83624 -2.40483 -3.09848
C -7.13953 -1.43165 6.03435
C 7.15417 4.60515 7.11876
C -5.74676 8.76063 2.12481
C 6.67080 1.38959 -7.34886
C 1.59919 -2.70800 -1.73327
C 4.47236 2.32692 -5.05520
C -3.48383 -1.74727 0.10301
C -7.87474 1.73814 9.45916
C -9.94373 3.78237 -6.11608
C -11.01316 2.90876 -1.06741
C -9.79600 -0.28748 -6.39663
C 2.56724 -1.40417 -3.61829
C 3.92455 -7.34906 -8.39411
C 10.37304 3.08203 -6.45535
C -3.54658 5.12885 10.39221
C 4.64673 2.10789 3.58881
C -1.74803 -1.36145 -3.32996
C 2.08840 -6.20366 -9.35432
C -5.42227 5.79133 -9.29955
C 2.28624 -4.36232 -6.39436
C -7.39934 -2.82410 -0.17585
C 3.54741 5.16664 2.03899
C 5.80277 8.02672 3.49547
C -1.70589 7.96384 -8.09943
C 11.23705 2.25043 -5.80221
C 2.31703 -7.26745 -1.82765
C 0.54706 -9.11254 3.23800
C 6.24505 -5.30224 6.57082
C 8.83637 -8.64647 -2.98206
C -2.73844 -4.52963 3.94987
C -9.56893 -10.22314 0.95769
C 3.33648 5.91229 0.85670
C 1.79404 -10.43802 -2.47904
C 3.54378 3.15787 -10.93682
C -3.86271 8.85287 6.29688
C -7.34074 6.95631 1.63009
C 0.78133 -4.43978 5.85823
C 0.76992 -6.65754 0.64447
C -8.60963 0.59183 1.81613
C 9.19847 10.40219 9.71060
C 9.94839 2.17342 5.94127
C -10.87256 -4.12592 0.60629
C 4.85572 4.28766 2.19773
C 5.32568 -9.69030 -1.80574
C -10.74901 0.39743 5.18363
C 9.06940 0.96734 -7.31729
C 9.19244 -1.24801 -6.74271
C -9.36079 -8.17826 5.23393
C -7.93438 1.73257 1.58497
C -6.23591 -0.47132 6.78765
C -3.14889 2.57532 11.43325
C 11.11843 1.97902 3.77544
C -10.49874 4.07199 1.02504
C -1.61151 3.76299 -8.50619
C 8.46209 -4.13220 6.59254
C 1.06856 -2.73017 -7.75419
C 3.56440 -5.82555 8.23882
C 6.18988 1.78028 9.15346
C 7.44931 -5.43376 -1.01426
C -0.34418 1.87206 1.52378
C -10.05814 -3.88270 8.29904
C -6.91376 -1.93007 -8.72328
C 1.21311 6.09327 -5.01540
C 1.12819 9.79027 5.40059
C 1.81083 0.95269 -13.02954
C -2.57937 -1.87024 -7.24314
C 4.09088 -3.55782 9.44445
C -6.16889 -6.34075 0.45033
C -4.00863 -4.10258 6.13723
C -1.38975 6.69288 9.60974
C 0.26865 -1.96663 -3.82190
C -7.72986 2.70470 -2.59689
C 2.04756 4.34211 5.46606
C -3.39010 4.69584 -7.04744
C 7.18801 8.28497 -0.47630
C -0.51505 -5.60898 4.37199
C -2.74032 2.67249 -8.58346
C -0.30515 3.95791 6.86933
C 5.00357 -6.44732 -2.70326
C 5.23181 5.94366 7.57226
C -4.96637 2.44853 -11.18853
C -1.59219 8.34169 7.72050
C 2.87955 2.06141 6.93603
C 13.16142 1.08765 -5.35649
C -8.56328 -3.65829 5.97025
C 6.33917 4.79638 0.79564
C 1.07776 10.55050 -0.33719
C 9.52595 3.85238 4.01230
C 9.50118 -4.40770 4.51933
C 3.02547 5.02669 -6.22601
C -11.04052 -0.31723 4.11861
C 0.32129 6.16283 -10.80867
C 7.82463 -4.41249 -9.27005
C 10.72593 -0.71219 -0.26563
C -2.30809 -0.96338 -2.05329
C -1.23924 -0.66669 -9.74280
C -6.91006 7.83011 0.54549
C 4.20905 1.56792 -8.99229
C -1.49515 9.66626 -5.88661
C -3.58962 10.54797 -1.93467
C -2.75698 -2.53933 11.75366
C -6.06802 -2.07307 -5.10239
C 7.95447 -5.62116 -6.53852
C -3.78370 -3.22982 -5.61954
C 4.90174 -4.38890 -6.42080
C -5.04046 -2.57427 -10.17095
C -6.21543 -2.80770 10.83676
C -2.09560 5.91009 -10.70781
C 9.50773 4.48277 2.62964
C -7.97496 2.50375 -9.02230
C 4.80172 -9.14988 -6.96874
C -8.13610 1.60312 -2.22157
C 5.89760 0.00214 3.52808
C 11.20957 4.23262 -0.52861
C 8.32706 4.50073 -6.37109
C -6.47556 -4.58570 -1.73067
C -8.55570 -5.82198 8.33690
C -3.09425 3.30975 6.36138
C 6.90688 4.22899 8.55885
C 4.16076 -0.45563 -0.18681
