1000
C1000 5000 K last frame of liquid_carbon.lammpstrj
C 0.38423 0.53232 -0.56978
C -30.06584 3.83896 -3.78748
C -15.49969 17.44782 -4.54965
C 6.90085 -7.86556 25.05206
C -27.78274 2.65673 -3.47964
C -1.51071 15.55793 -29.44409
C -0.81238 -9.95037 -26.95220
C -12.05524 -3.82034 -17.52527
C 2.61560 -27.73939 -9.48066
C 25.41401 9.47549 -6.28999
C 2.63919 -27.40835 -10.76265
C 0.16195 1.42298 31.19806
C -4.85255 -9.79771 -24.85236
C 28.63716 12.66097 -20.30749
C 18.89836 7.59708 31.06803
C -7.37509 3.42306 -32.93611
C -5.24161 -6.85045 28.22415
C -9.85123 -1.31997 -31.76809
C -18.99962 27.56673 -31.69711
C 5.72997 -7.69145 25.69544
C -30.60555 7.06891 -20.56296
C -19.12343 -28.26961 23.27562
C -5.79253 -24.97073 16.27085
C 31.04497 -27.64061 29.18994
C 4.60045 0.81605 -2.03566
C -19.21366 22.84328 -4.91635
C 9.95332 -14.63953 23.07199
C 31.82452 21.38725 4.70148
C 25.49530 26.49891 -22.56453
C 26.49745 9.12091 -6.90360
C -13.26489 -30.18914 16.23455
C -15.59264 17.60715 -9.06865
C 5.45908 25.49275 -20.32117
C 3.02294 -0.30194 -27.24740
C 12.33327 -13.99007 21.48131
C 9.51207 -22.71881 19.89777
C -5.45643 -28.20295 -18.76518
C 3.75679 -9.33948 -22.21274
C -10.92598 17.75598 -13.30010
C 31.86186 -28.53711 28.59592
C 25.42963 12.59706 25.25687
C 25.60044 -25.23163 -14.34581
C 5.10295 -1.71946 -26.78755
C 32.66286 -27.85998 -16.11331
C 2.45652 -12.06460 -6.73402
C 7.03814 -27.86293 -27.79605
C -4.81650 -8.55313 -24.57615
C 5.31005 -17.67307 21.43308
C 27.93481 25.71703 -15.68555
C -5.76744 -2.51788 -32.46382
C 28.03282 -0.24509 28.22728
C 23.30036 4.50183 9.12552
C 21.69582 -29.24509 24.21661
C 32.61237 3.53086 -8.86207
C 22.44244 -11.47939 21.07072
C 26.43230 26.63491 -15.02729
C -13.44924 32.52366 17.67651
C -19.06321 18.37782 6.01504
C 14.96425 -18.55763 21.82091
C -25.79848 -0.53380 -3.34448
C 18.88371 -12.62888 -30.23556
C -19.84166 31.86423 -0.35988
C -9.53192 25.86353 -6.00329
C 21.37813 5.88688 8.75610
C -16.38127 18.89847 -26.65843
C -22.60723 29.11980 -32.58186
C -29.52769 4.99849 15.33287
C 0.73142 -25.88199 15.45824
C 19.96650 7.94297 28.91568
C -7.04904 -22.89610 15.61893
C 29.42513 32.40037 -11.79008
C -16.56238 -0.02832 -18.90494
C -13.02504 5.92059 -21.44499
C 6.70198 27.38172 -19.68092
C -11.21794 -24.43244 6.86945
C 11.64780 3.54285 4.74478
C 16.05745 3.63004 -32.89917
C -7.29199 -20.96349 15.56811
C 11.31779 -17.32354 23.13156
C 31.04957 5.50216 -8.84106
C -12.32568 -28.26490 17.58777
C 10.87595 10.45664 15.12590
C -0.02655 5.83839 -11.03834
C -26.44151 8.19902 6.69275
C -18.84697 19.23684 6.91554
C -29.85322 -29.84661 -13.90172
C 21.86177 1.91031 -0.78246
C 0.28868 -16.26734 24.01258
C 4.90556 -5.93244 -32.89690
C 1.56431 3.17550 -3.61097
C 30.49547 -26.60099 29.28192
C -6.91927 -29.21242 30.59029
C -16.01522 -4.84499 13.87451
C -11.95412 19.15944 -16.44203
C -7.78496 9.73957 5.54132
C 0.45715 2.79539 -2.62476
C 2.74829 1.38577 -24.23162
C 10.51370 3.80188 4.21350
C 28.75915 8.51762 -7.90665
C -0.65448 6.70150 -11.97009
C -30.98612 -29.68667 -31.90207
C -16.43604 27.36267 -31.35679
C -7.94624 -3.34183 -31.74579
C -16.23788 2.44716 -19.85931
C 29.07283 -10.30423 -22.22506
C -6.52307 -24.08552 15.70443
C -23.34931 19.22362 2.56949
C -28.62569 -31.75838 24.73246
C 20.45921 -23.42077 16.11197
C 32.08718 -28.88264 13.83484
C -3.40961 -25.88385 17.63788
C 31.66720 13.68445 4.74323
C -2.07032 -6.43390 -27.49353
C 4.03539 9.46616 7.13224
C -1.10162 1.23084 30.53934
C -21.07730 -22.56025 -8.73884
C -29.57099 -11.21290 28.18051
C 13.20046 -8.97473 -27.91377
C -31.37900 3.58648 -6.01314
C -30.24339 -11.29834 11.88934
C -31.93472 -6.09203 30.19293
C 14.37096 3.64845 4.95520
C -14.89769 22.48384 0.54678
C 32.01497 -10.21004 21.57309
C -30.59284 -29.67567 25.59585
C 31.93595 -28.85861 23.99873
C 4.76704 30.36036 -12.11244
C 6.17731 32.12183 -28.06960
C 26.65172 20.58527 -18.20661
C 20.08707 32.15061 27.79782
C -31.76748 31.50933 14.22753
C 28.02310 12.84740 26.18229
C 32.22849 6.25546 2.08883
C 26.00474 28.24846 -18.96360
C -31.16930 28.61678 -24.09174
C -15.92434 3.21031 30.96016
C 31.32798 32.42559 10.34774
C 6.18502 -29.62621 7.43969
C -14.04930 8.39556 -21.81376
C -6.87052 -28.01051 -20.92369
C -32.01724 0.30188 -6.10324
C 1.99622 4.62104 -11.01882
C -21.19929 7.96488 29.88172
C -10.32838 -31.74900 -26.53274
C -23.67245 -5.52186 -23.47729
C -6.74003 29.26474 -2.16142
C -6.60248 -28.77808 -21.86789
C 3.12516 9.50447 6.15628
C -16.45076 17.34093 -5.34197
C -21.52768 28.25365 -32.56481
C 19.79796 -21.82705 -1.10125
C -5.72265 -31.35174 1.95556
C -17.07344 -22.63149 -8.80431
C -31.70823 2.97190 18.85038
C -20.42597 27.63842 -32.20051
C -10.15492 -28.94301 -30.88929
C 15.06087 0.31608 30.23629
C -2.61346 -23.30078 18.69973
C 2.08490 -0.69774 -26.10303
C -8.92440 -3.63268 -30.64621
C -21.84155 7.65866 30.97034
C -29.67341 -30.49963 24.96598
C 8.35662 13.82044 3.37827
C 23.16216 8.47574 8.73011
C -9.50923 -30.09045 28.37130
C -20.57752 19.93802 30.60176
C -11.98407 -2.35945 -32.26521
C -13.08870 -3.50174 -16.90674
C 11.00164 -23.34531 19.47921
C 18.50989 4.23042 -32.01298
C 18.05847 -10.41248 -27.47771
C 4.03513 0.95568 -24.25450
C -23.09832 20.45796 26.47074
C 5.51457 -29.28112 12.52232
C 22.02052 9.27675 8.93306
C -26.88736 10.08722 5.09716
C 28.90053 13.62565 26.27622
C 31.67264 10.04553 -31.38376
C -13.46188 -1.00130 31.33172
C 20.97507 -1.99373 -0.18940
C -9.35955 -30.77572 29.38000
C 23.16540 2.33295 -0.47423
C -1.10758 -7.58333 -27.29628
C -0.27566 -7.22019 30.42616
C -22.39837 19.34367 0.17632
C -13.55950 7.92786 8.46440
C -12.37177 -28.66575 30.84770
C -21.75274 21.31017 25.09675
C -26.99159 1.74125 -3.17076
C -15.90528 18.27624 -27.84370
C 30.93341 -10.26521 -26.96782
C -10.36293 18.00289 -12.06985
C -10.23867 -31.13470 -25.44703
C 2.79444 1.16324 -1.17256
C 3.28450 -15.77910 -5.12890
C -19.11591 9.86358 -17.94966
C 20.89002 -22.26045 0.80069
C -19.24147 21.90193 -7.03039
C -29.29491 -31.12854 23.76615
C -18.81151 20.80988 2.72072
C -8.16832 3.40316 30.81632
C -31.01062 1.18314 -8.32223
C -8.76728 -30.86633 -31.17101
C 31.69857 -6.82381 30.05350
C -20.12461 -17.00631 19.67037
C -20.21640 -14.79205 19.35469
C -1.58636 9.67838 1.57842
C -12.21833 -29.12538 16.53260
C 22.21770 -4.42650 10.14232
C 7.99952 -28.17332 8.30247
C 15.34466 -19.78367 22.95489
C -24.41420 -3.84200 -5.26373
C 6.68486 13.85875 1.44366
C 32.74123 -28.96508 27.80918
C -9.31930 -26.18294 6.78104
C -28.69758 6.75141 16.88614
C -28.93599 3.60177 -1.63992
C -23.98703 -2.65692 -18.91025
C 4.35775 -1.19603 -27.53002
C -4.07877 -9.64713 -25.99705
C -23.52102 19.52173 28.46758
C 11.62855 11.56470 -22.83510
C -1.29913 10.90268 27.07603
C 10.70960 12.85790 15.23434
C -9.14810 -31.41076 -24.66541
C 14.35738 -23.89124 20.46146
C 8.04943 15.10528 3.74698
C -25.45025 21.48344 1.12882
C -30.95105 -29.99613 28.69841
C -17.23562 -20.24656 -11.71436
C 19.08680 -11.60048 -27.59776
C -30.67128 -9.03203 28.41691
C 1.89808 -9.92541 -26.69013
C 16.62646 -22.45349 -17.13361
C 10.06948 -23.74734 20.42088
C 19.83919 21.61587 -11.30210
C 29.91739 -26.81051 -32.16117
C 0.85477 5.13034 -10.44178
C 32.52531 30.69996 21.59993
C -30.55343 27.99928 8.47704
C -6.61434 -2.98187 31.51770
C 7.60650 7.49861 13.50671
C -6.71884 -19.76357 15.59501
C 3.67427 -8.01925 31.02952
C -7.43369 32.81721 -15.08796
C 8.31403 28.67460 -17.66366
C -30.24559 4.15983 0.46575
C -18.38621 20.09450 7.83861
C -20.36892 15.63565 25.38243
C 2.50495 -28.14999 -8.38206
C -20.57642 -21.70493 -7.07966
C 27.94058 31.63508 1.89560
C -10.01620 -24.91900 7.25203
C -7.95447 -30.19389 -3.02134
C -11.08777 18.72902 -8.90738
C 31.03453 -9.67559 -25.50401
C -19.38752 22.75084 -6.15510
C 21.32588 -25.14633 17.67813
C -19.26637 22.09996 -2.70177
C 32.05846 -12.30704 24.39653
C -26.74105 9.47342 6.50269
C -16.43183 17.17382 -28.13546
C 26.39211 27.08743 -18.75014
C 18.07402 11.39869 -21.26686
C -14.24188 17.95064 -4.52690
C 31.72210 -26.56703 25.61892
C -0.65876 9.01610 1.22754
C 1.55744 -25.74309 14.29870
C -31.27581 2.22502 24.43739
C 4.18591 29.37422 -14.33525
C -6.92173 -29.63001 29.43069
C -6.99148 32.35863 -16.15642
C 3.01646 -14.40286 -5.39208
C 20.82416 -24.00261 16.99744
C -0.60424 1.18437 -1.02275
C -12.14852 -28.87570 -32.75429
C 31.67459 -27.57202 24.74368
C 6.28653 26.06649 -19.54078
C -2.25688 1.11092 30.19053
C -9.22531 -3.98344 -29.24392
C -30.71562 -29.42283 31.20817
C 2.59622 -27.99247 -11.85632
C 12.63976 -8.34213 -25.34027
C 21.46583 0.79654 -0.92066
C -23.36940 19.82724 0.91439
C -18.51793 21.99223 -4.25666
C 8.73000 17.80032 -24.62723
C -5.67747 -19.05183 15.81612
C -12.75895 8.20971 11.83184
C -10.97822 32.60061 30.71870
C -17.89045 -22.75725 -10.17568
C 2.59349 -12.29517 -24.94648
C -26.86849 -28.05828 10.65720
C -20.86689 -17.56352 9.23462
C 19.00156 -26.44144 -12.95985
C -7.35001 -30.74699 3.72462
C -10.96273 18.27359 -14.55052
C -14.11749 23.40003 0.15435
C 32.34796 -13.46605 25.13763
C -13.01863 30.99024 19.92033
C 15.26397 10.76247 -19.59205
C 24.48246 9.04669 -5.60133
C -19.13309 30.38720 -0.01665
C -5.30740 6.32974 -30.42608
C 26.81268 12.94515 25.40955
C 14.48537 10.90520 -20.85316
C -22.19003 -23.44384 -8.79705
C -12.04513 -10.84115 19.53049
C 13.57390 25.59899 -2.97467
C -22.18899 8.09472 -31.53434
C -12.53201 4.74258 -21.13605
C 18.37156 -12.88453 -31.40119
C 0.25141 5.94347 29.76361
C -24.09612 -1.40560 -19.21440
C -23.83606 19.98728 27.26868
C -10.12270 18.12864 -8.15110
C -30.14875 29.77722 -27.31358
C -6.82223 -29.89671 28.19651
C -26.66068 -5.56905 -21.75724
C 17.97951 10.49138 -18.97728
C -14.36174 1.17426 30.21315
C -13.77860 -31.14217 17.08002
C 32.00816 7.64148 -31.37643
C -18.67824 31.22496 -0.78311
C -19.35005 16.47627 27.27106
C -0.44413 10.07782 27.52977
C 6.36840 -27.53545 -24.87414
C 15.53049 -20.63115 21.80658
C -19.72952 -18.82541 16.85885
C 2.11841 3.47634 -5.43713
C 3.03402 10.78846 1.16324
C -0.69992 7.40650 31.10212
C 29.45767 -9.61206 -23.44877
C -30.66868 5.25564 1.08954
C 11.59950 12.61177 16.09421
C -25.68160 -4.65292 -20.94003
C 32.28132 14.12459 6.64893
C -29.42002 -11.12254 14.03793
C -1.95824 7.99308 31.82968
C -6.03075 -29.46873 -22.77941
C 12.68032 27.95067 -2.20225
C 28.59638 11.46708 -19.45580
C -14.51187 14.10047 -27.98916
C -27.17996 20.91508 23.50520
C 25.25338 27.17766 -15.04557
C 8.26963 -13.55778 20.21313
C 3.42646 11.22342 2.41359
C 19.45532 -21.29914 17.06382
C 0.21440 -25.93854 16.89774
C -17.70240 18.93496 -7.10967
C 19.08888 6.16276 9.75967
C 6.69011 6.66293 13.79238
C -17.32183 -22.70345 -7.32566
C -18.17230 -20.14285 -10.79973
C -0.69493 -25.16681 17.72325
C -5.82799 32.51919 1.04513
C 2.99915 3.77815 -26.71204
C 31.22239 -28.81027 -31.59553
C -15.19840 27.30037 -31.64117
C 32.24217 31.88439 -8.93622
C -13.04981 30.72887 -31.45876
C 20.11410 -30.84536 24.29529
C -5.75318 -5.83696 28.39151
C -10.06961 17.88310 -9.76659
C -22.40887 21.58139 26.07026
C -18.17872 -6.43112 11.65274
C 2.90529 2.67430 -27.43804
C 17.66396 17.61597 -9.92165
C 7.23403 -30.38844 -28.65449
C -6.89437 31.66691 -14.86193
C 4.88962 10.18192 4.19736
C 0.55925 -10.53000 -26.48490
C -18.90770 20.92591 -7.74726
C -26.82040 24.01954 1.42881
C 4.75459 -29.92462 13.30220
C 0.32997 9.63145 6.13159
C 7.36647 17.95077 -24.93209
C -30.84163 -6.61152 29.74948
C 12.92734 3.39337 4.85764
C 30.50228 13.16257 28.13298
C -7.54921 31.37508 28.29582
C -14.84823 2.41274 30.62996
C 5.36399 1.44703 -24.37254
C -8.07666 -5.73441 -24.97526
C 32.11155 9.88160 3.46001
C -1.94904 -11.71067 29.14573
C 18.64945 7.39509 10.29193
C -10.92714 -23.64110 5.68678
C 25.72950 26.05514 -23.69917
C 11.73660 -4.59646 -22.42827
C 2.37465 -14.96526 24.60691
C -27.80316 5.94613 -17.58977
C 19.20270 11.94488 -21.56083
C 32.17190 -31.17042 14.72977
C 29.98020 -26.13547 30.41443
C -11.50743 -5.74413 -18.50512
C -13.33593 31.94493 18.78257
C 27.95283 0.36521 29.53797
C 29.75637 14.57329 26.52358
C -20.09453 21.25747 -2.13763
C 0.24305 -10.46129 29.06140
C -12.63112 13.53289 -26.92744
C -11.03164 -29.18565 -31.93176
C 21.01163 31.78742 21.16556
C 21.70937 31.11327 20.17248
C 19.23505 20.50794 -10.84076
C -16.15737 -2.60441 16.92892
C -6.60598 -18.22658 15.80562
C -0.76046 14.19207 -29.13003
C 31.86957 11.02901 -27.12904
C -5.92302 4.14920 -31.15370
C -15.84214 3.65849 -20.06791
C -9.84527 1.73464 -31.71876
C 14.69539 -22.42815 20.37713
C 5.77891 0.20633 -24.77373
C 32.79004 29.63753 20.86550
C 28.20227 -30.68959 1.46881
C 31.87443 11.11296 3.45599
C 19.59248 -19.61520 -1.72283
C -28.74956 22.73677 2.50311
C -17.78039 27.70979 -31.98621
C -20.32672 8.99120 -15.52188
C 19.07851 -12.23152 -28.98145
C -11.29773 -4.39551 -18.48431
C -1.73467 -24.36425 18.75839
C -6.84841 3.45204 -31.88846
C -11.42446 -4.37354 -30.58327
C -4.95801 26.89686 -14.77805
C 24.01801 12.70596 24.85298
C 20.19662 6.80677 28.94893
C 9.50650 -9.19078 28.78487
C -24.37570 20.43799 1.73341
C -19.47580 19.17591 30.36685
C -31.58339 0.93001 -7.27334
C 31.95786 8.69860 -31.75700
C -13.74334 19.08373 -9.60557
C -7.76552 31.12863 31.13706
C -31.41466 4.70103 -29.09690
C 22.30696 5.14084 8.52890
C 4.06554 -20.89900 19.40558
C -30.68917 -28.59809 10.70802
C -20.83752 -17.99730 19.06319
C -2.19478 -10.53480 -27.27586
C 16.59919 10.43291 -18.83545
C -8.76306 -31.68179 -32.11482
C 17.81026 6.91710 -29.59460
C 24.32254 3.81815 9.31221
C 1.63555 -27.68417 -6.96382
C -15.98333 -2.99341 15.68551
C -31.11330 3.39758 16.39045
C -24.73371 -4.01779 -21.97601
C -31.14902 -25.34585 9.81950
C 12.52596 -7.14831 -24.83466
C -7.59490 26.33913 -14.24216
C -11.52124 11.65085 -25.83512
C 2.76715 1.29819 -27.06577
C -19.85015 -31.68082 -0.17663
C -16.70538 21.13878 7.73522
C -31.21624 6.27348 1.60617
C 11.30981 -5.31456 -23.40884
C 10.41433 11.49230 -23.55507
C 25.67538 -24.63605 -15.57737
C 7.80797 16.12992 3.29705
C 20.38564 -31.78420 23.32792
C -26.25184 0.73210 -3.45740
C -29.26944 -21.16068 11.22925
C -16.35864 1.02834 -19.49657
C 3.19990 -16.84010 -4.27792
C 8.99842 -13.52122 22.46468
C 18.54437 -24.81988 -15.07402
C 32.00505 -7.68011 28.91859
C 7.93463 29.39108 -16.60642
C 22.19930 -3.59794 11.26678
C 21.39524 -0.69359 -0.61256
C 3.45420 -21.81921 20.01153
C -4.63429 -31.80516 -2.94401
C 8.64268 -28.15784 10.53475
C 19.13503 -20.64600 -1.28904
C 20.98278 -1.63604 -1.40844
C 11.21601 11.12346 16.44470
C 31.07628 -13.52614 25.44295
C -6.26048 26.79398 -14.74648
C 26.65613 3.40783 9.80635
C -15.63497 14.83711 -27.61954
C 3.84546 -9.55093 -28.55525
C 30.32097 9.13148 -27.37004
C 15.38701 -22.64835 -17.64234
C -11.90297 2.48340 -22.17942
C 13.82253 -17.99491 21.62865
C -17.97239 -7.94270 11.88246
C -8.91513 -29.41837 -30.94413
C -7.19696 9.92600 3.17719
C 8.59945 8.40645 13.28813
C -15.85038 -5.47104 12.65449
C 18.79309 -10.86429 -26.53572
C -28.67619 -11.54700 29.10450
C 24.60199 23.99290 -14.50132
C -6.08423 31.16519 -0.88008
C -31.49089 2.31071 -8.95081
C 32.40306 21.97207 3.42442
C 26.80898 -23.83498 -16.14022
C 27.71740 -23.04726 -16.25365
C 32.26667 6.45213 -30.78999
C -10.93674 8.55217 6.19142
C -18.57543 19.77311 29.44780
C -3.26389 -6.42321 29.78766
C 5.41597 -4.48717 -32.61362
C -0.47998 6.98840 29.75175
C -27.98447 -10.87842 13.91321
C -13.58083 7.99820 11.03505
C 5.81754 5.53457 13.73592
C 3.91729 -31.01617 9.21407
C -22.72721 27.91722 31.49015
C 1.93762 -8.94964 -25.65284
C 32.20146 2.65343 19.89077
C 32.03163 7.28937 2.92478
C 27.20083 22.59987 -16.92203
C 11.49949 -2.84938 -20.35598
C -19.56837 9.32523 -16.86959
C 20.95543 32.10167 28.77105
C -24.33363 -24.05920 -10.45844
C -31.16574 -9.97156 14.21223
C 28.20110 17.36938 -17.93728
C 25.33175 27.56465 -21.57807
C -12.35485 1.16330 -22.33966
C 20.35284 -31.66137 29.01083
C -6.79558 -28.73069 -32.95478
C -7.77835 28.56174 -4.29652
C 9.52018 -13.59284 20.27769
C -9.80229 -3.98571 -27.99253
C -3.02042 -11.11749 29.13497
C 8.86463 16.91012 -1.66851
C -23.42638 -6.79354 -23.92916
C -31.93505 2.63392 23.37447
C -13.05739 -27.38909 18.27774
C 15.30470 -21.47604 20.94503
C -31.69572 -29.53382 26.56203
C 4.89785 5.68956 13.09282
C 10.17961 -15.28548 24.32173
C 22.99349 -29.30497 22.11974
C -0.91091 -8.76341 -27.51978
C -8.44770 -22.33539 6.61231
C 18.84670 -21.41479 18.25628
C -16.30400 -1.69606 17.96102
C -5.80115 -31.30350 -2.25132
C 17.63064 7.10171 31.73705
C 8.91578 -8.68543 26.38300
C 31.42022 31.95647 -10.02906
C -19.07877 21.77631 2.04443
C 16.81016 -22.83892 -15.64368
C 1.33342 -12.47460 -25.36769
C -4.24951 -6.09391 28.90498
C 29.85957 12.32448 29.51781
C -23.72579 -4.52457 -22.71446
C -21.46616 19.62292 -0.75958
C 25.37862 3.18024 9.44982
C -8.45393 26.47811 -13.26361
C -8.95286 28.25792 -6.53794
C 31.87774 15.05226 -26.33963
C -4.96333 7.55378 -30.99184
C -31.75782 32.83932 14.57861
C 3.67304 10.68202 3.51440
C -22.03945 7.26655 -32.64442
C 31.26867 -30.02378 23.49422
C -30.66920 1.36567 25.22175
C 0.00684 4.62272 29.74961
C 30.89614 -31.16204 12.58539
C 31.85311 -11.29536 22.23914
C -28.10964 -28.40311 10.38572
C 22.07594 -10.75870 22.46920
C -6.18775 -27.66569 -19.74769
C -7.92660 0.00059 31.54751
C -6.79170 -3.33690 30.21451
C 32.42082 4.28850 -6.31534
C 1.80902 0.58677 -0.62935
C -9.42995 -4.66225 -26.85821
C -13.83454 -12.97237 19.44103
C -29.93458 22.41279 3.02609
C -9.52025 -21.95508 6.02858
C 14.39982 24.83785 -2.29326
C 7.60495 27.79639 -18.71067
C -21.29562 -19.48698 -6.05689
C 3.96415 -7.15382 -32.65083
C -2.83956 4.67069 25.83218
C -18.68802 17.62044 27.66715
C -17.96701 -28.36943 23.90733
C -8.20164 -22.00674 15.42771
C 6.63482 15.19072 0.21625
C 3.86258 -12.05831 -24.63138
C 5.14152 -9.70080 -28.53198
C 31.69961 -30.47660 13.55597
C 17.13307 1.83751 19.80527
C 16.49643 17.36323 -10.48852
C 17.00670 11.17908 -22.00084
C 19.85326 5.97432 8.74573
C 8.94560 15.73133 -0.90944
C -8.28928 26.07187 -6.57664
C -20.49688 16.80329 24.62036
C 2.84986 -9.05148 -23.08887
C -17.93563 19.81959 28.28081
C -29.60949 29.29572 -28.51136
C -26.13439 20.77785 24.15478
C -14.82139 -3.23111 -16.95678
C 32.15077 12.26660 -26.90229
C 31.64237 4.25680 -8.84372
C 14.26508 -25.65860 19.90561
C 18.89636 8.58600 10.66757
C 32.67829 -28.08816 12.83275
C 20.53888 -31.05056 25.70318
C 32.51805 31.75993 22.34013
C 27.66761 3.10193 3.38080
C 21.06569 22.18806 -11.45877
C -10.12199 27.53503 -11.16163
C -20.92957 -20.71737 -6.44557
C 15.25474 0.27459 31.60281
C -31.89661 -26.25176 10.42092
C -20.29347 -30.62467 -0.92455
C -17.68652 -21.25338 -10.66548
C -20.98233 20.84721 -1.47320
C 12.43506 -24.55502 18.95429
C 31.91734 20.77818 5.78498
C -23.12801 -23.51781 -9.68550
C 16.50241 23.31129 -2.40450
C 4.33195 29.43606 -13.08749
C -10.44824 9.74800 6.45667
C -18.55643 18.78438 27.89293
C -30.61333 -24.16616 9.38941
C 28.77484 -22.40922 -16.59857
C -29.39623 -28.33462 10.31494
C 13.87526 -8.83348 -28.86989
C -3.61613 -22.54113 19.47267
C -12.98284 18.44368 -4.56819
C 4.95256 -29.92866 7.85047
C -5.93974 29.75408 -1.28237
C 4.71064 -8.70092 -22.50386
C -14.68721 18.48348 -9.31303
C -14.49145 -13.30173 20.82829
C 17.47053 22.79952 -2.71908
C 31.25966 13.87593 26.83444
C -23.80760 -0.24340 -19.35299
C 32.64614 -28.95825 -31.66495
C 14.62744 -9.10068 -30.19991
C 16.86466 5.39138 -32.71546
C 31.95974 12.96499 2.78995
C -16.73636 3.76480 30.07430
C 4.09082 4.72922 -12.30470
C -7.70355 30.88386 29.54976
C 16.26281 6.61930 -32.72758
C -7.57987 28.57795 -2.87459
C 11.52828 -3.71021 -21.55415
C -30.65520 -29.00601 -14.74220
C 4.47028 24.81024 -19.91020
C 2.04432 0.71908 -25.95310
C -26.17289 -29.11778 10.74309
C -20.54932 8.30895 28.94102
C -12.90616 -1.97661 -32.95640
C -27.16253 -5.65500 -23.99580
C 19.13134 10.05655 -18.26858
C 11.62154 -24.04170 18.23437
C -24.90406 -4.09759 -4.06278
C -5.65109 5.24663 -30.58528
C 31.78939 8.75052 2.95699
C -0.61571 7.71499 28.58274
C -21.38241 -28.93221 22.33359
C -8.32422 31.76039 -32.68934
C -8.78445 -5.15529 -25.85943
C 30.56192 32.29089 -11.18418
C 10.72665 -2.35336 -19.37684
C 12.97612 -17.08545 21.06826
C -1.89945 -7.22739 30.29606
C 1.59335 9.26073 6.21482
C 31.59272 5.25046 1.98414
C 17.17293 1.75150 18.52205
C -5.59236 27.91949 -14.79509
C -26.75972 21.35373 1.30371
C 9.44596 2.78735 4.44861
C -0.47881 -24.91180 18.90068
C -11.68815 32.18782 31.64235
C 5.68284 -0.82939 -25.69692
C -12.18041 8.23674 6.74577
C 29.79378 7.90006 -8.30181
C 6.74560 -26.58176 -25.69524
C 15.87931 2.28556 19.31774
C -9.79237 18.38476 -10.97643
C -30.83087 30.50835 12.28514
C 20.72563 -5.28052 12.15588
C -17.16347 20.46399 3.85549
C -0.98241 -10.85619 28.77352
C -30.90528 29.09847 -26.50700
C 27.05401 19.42768 -18.34138
C 25.91496 5.05119 6.12160
C -12.01194 -10.02122 20.59869
C -27.76440 23.07988 1.66898
C -8.04639 -30.92578 -23.71045
C 27.55969 -29.54034 1.58588
C 31.52744 32.43136 22.93509
C 18.41051 19.50961 -10.98551
C 30.88583 8.68259 -26.27034
C 4.26026 -19.83144 20.45764
C 32.27996 2.61804 22.24796
C 10.02780 10.12280 14.19110
C -3.67369 1.72557 29.57193
C 6.08779 32.49806 -29.28352
C -13.08351 -11.85458 19.32247
C 31.60769 13.40280 5.94795
C 32.35898 -11.90663 23.09502
C 4.75187 -2.26468 -32.42162
C -30.51843 3.48892 -5.06311
C 30.96064 -31.49850 11.30885
C 20.37644 32.34424 22.32936
C 30.04989 6.41823 -8.41078
C -20.00423 15.55618 26.62614
C -20.40730 -28.32350 22.87539
C -18.60149 18.04995 3.51777
C -21.39389 19.25188 23.69054
C 18.68037 6.18279 -30.44818
C 30.99810 11.06415 -31.54646
C 3.38361 -23.93701 14.68712
C 2.82445 -8.93007 30.58990
C 2.27930 -24.49435 13.83471
C -23.22790 -18.04249 10.32635
C -15.58000 20.67304 7.09782
C -7.42851 9.39498 4.26439
C -31.35230 -28.22084 11.86179
C -20.74236 -18.61370 17.82833
C 5.34162 4.96193 -12.61973
C 13.15521 26.78692 -2.01246
C 28.44788 14.97693 -18.83947
C 6.67618 -31.57600 -28.38392
C -2.39035 -6.03129 31.01759
C -29.41976 -22.42413 10.69505
C 4.34939 10.49423 6.14390
C -11.22267 18.83481 -15.52953
C -17.08964 -5.78549 11.98910
C 17.50165 -23.96281 -15.43625
C 26.87393 24.53922 -15.66442
C 2.90010 -28.31207 -6.65339
C -16.16567 21.21365 4.40978
C -16.30672 -3.71222 14.60492
C -0.84758 13.13651 -28.47305
C 15.67081 1.29768 30.65945
C 22.40634 -28.74241 23.08026
C -24.28508 22.49389 1.05175
C -29.38411 -11.02842 12.74298
C -30.71348 -7.74635 28.92365
C -9.33116 -22.75129 15.08908
C 14.05641 11.61086 -21.90270
C 27.68991 -28.48728 0.67513
C 2.88390 4.25991 -11.92348
C -23.21558 8.96003 -31.18754
C 0.41703 7.40242 26.79454
C -9.33168 -20.42346 2.45981
C -6.25620 31.77011 0.17153
C -22.66103 19.63653 29.51016
C -16.10642 17.30748 -7.93284
C -22.57209 19.55194 23.26876
C -29.89192 -23.30843 9.91492
C -14.02317 -3.90027 -16.01206
C 7.57195 13.38063 2.37204
C 5.76640 14.00058 0.53998
C -13.76816 0.28529 30.85923
C -16.06682 15.83518 -28.24132
C -7.87811 -30.64351 27.61562
C 19.66333 7.22208 30.20213
C 30.41555 -9.17477 28.15986
C 6.59664 -28.77167 11.88227
C -0.89600 5.19743 27.13534
C 2.64840 -13.49600 -6.34885
C 31.65183 -27.33230 -16.54334
C 18.88670 -25.55198 -14.00440
C -9.32150 27.18881 -12.47207
C 7.39006 -27.00461 -26.86508
C -6.04702 -3.47880 -31.08525
C 25.74350 24.65881 -15.08744
C 27.68356 -0.64815 26.74966
C -15.93315 21.30343 5.68243
C -31.11855 2.93800 17.85912
C 25.81850 27.16522 -24.44152
C -6.49935 29.04473 -14.29901
C 6.00041 -16.68239 21.64388
C 31.64431 2.20570 21.06392
C 7.86741 15.34292 -0.27756
C -21.82022 20.17501 30.46946
C 19.73781 -22.30855 16.27655
C 4.00843 -31.11426 7.94719
C -0.89432 6.67576 27.36348
C 25.96805 27.82517 -20.47454
C 6.62024 29.74546 -15.94769
C -3.29630 16.96068 -30.71609
C 26.31634 21.54087 -17.70508
C 27.83427 -31.81128 2.13447
C 6.87084 -0.23400 -25.02038
C -24.78058 -4.84486 -19.58350
C -9.46897 -22.92903 3.69220
C -23.88279 -7.74201 -24.69957
C 31.22978 13.50081 3.58609
C -13.47193 13.80307 -27.89186
C 0.80590 9.09855 4.99791
C 29.40543 -25.93162 31.72461
C 4.99327 -8.97181 25.78931
C 18.08504 21.85487 -3.40153
C -15.58162 -1.05121 -18.14710
C 9.98262 -9.60499 29.81216
C -7.04852 -30.92770 -2.60772
C 30.85828 9.90643 -26.53339
C -30.35767 -13.26497 15.65770
C 31.67744 13.89622 -26.87597
C 10.66753 -16.49253 24.23423
C 14.93284 4.35339 5.86348
C 8.66278 12.32105 4.27249
C 18.82298 5.45510 -31.51645
C -30.73078 11.65383 2.53358
C -29.38450 6.99417 -20.04736
C 30.95791 -8.25261 28.22598
C -9.18032 -0.42789 -32.57901
C -10.22823 26.15860 -4.72636
C 4.43606 -3.55036 -32.68927
C -27.42720 10.45126 4.01560
C -1.56004 4.79152 25.97475
C -8.67212 28.60848 -5.31546
C 3.97628 29.25113 -15.60297
C 11.10255 -14.03772 22.05835
C 28.94117 13.96325 -19.67969
C 3.94574 -9.33922 24.72243
C -31.65301 5.84987 -29.70169
C 9.93257 10.29925 -23.18656
C -30.32176 29.92372 11.05838
C 0.80862 -9.46278 29.74825
C -18.39756 19.75995 -7.69469
C 10.67660 -14.34348 20.47747
C -20.02200 -22.47333 -7.97686
C -13.90999 -13.32318 22.73098
C -13.29671 7.13367 -21.91910
C -3.51520 32.54266 -3.25153
C 27.67974 1.50148 30.12221
C 17.51746 18.44018 -11.33995
C -3.83296 7.53122 -31.66956
C 29.06686 9.50395 -18.02939
C -16.88740 17.55905 -6.71652
C -8.63018 29.43671 -12.91558
C -15.24922 -13.05430 19.81240
C -6.65712 -30.45013 -23.75803
C -5.15695 -2.52183 -31.23914
C -9.09242 9.90565 5.89978
C -29.94884 29.75369 9.89599
C -30.23444 -10.21024 27.82831
C 28.33418 -0.00758 25.73977
C 19.87821 -18.58161 -2.21567
C 20.54400 -24.41967 18.30030
C -31.12542 -28.38095 -15.54541
C -12.45040 19.25713 -9.85164
C -7.57844 29.48837 -13.47266
C -15.39345 -2.14645 -17.75344
C 0.67146 2.64008 30.93968
C -30.17234 3.86923 15.53188
C -17.88222 21.47663 7.72018
C -13.53610 24.53552 -0.08031
C 26.61037 4.83832 4.93257
C -9.98677 2.69044 -30.83316
C 3.59752 -11.69803 -23.16679
C 17.16276 3.80421 -32.17381
C 30.79216 -31.38289 23.31744
C -27.22320 -13.55233 28.76439
C -18.45680 19.84682 3.31578
C 21.99802 22.57757 -12.37509
C 27.27551 22.54529 -15.61075
C -10.98490 -5.52614 -30.23829
C -25.21275 -2.93034 -4.22729
C 22.97865 -11.69129 19.93666
C -3.07189 -26.31685 19.05327
C -8.14972 -21.19478 2.17543
C -12.23272 30.22158 20.41511
C -24.17443 -3.66263 -19.62343
C 27.99445 18.60048 -18.60216
C -20.39893 -15.76944 20.20438
C -9.15848 28.65651 -7.75316
C 31.42535 -28.62399 -16.12369
C 20.52455 -29.58458 24.88923
C -2.23737 16.76511 -30.08472
C 21.03354 -21.69683 -0.49180
C 20.02698 -31.80957 26.63026
C -10.12919 -31.52902 30.11125
C -27.95336 -5.33536 -24.90843
C 5.28944 29.55320 -16.08051
C 13.80501 -24.56961 19.45698
C -29.32868 6.30213 15.76867
C 30.34023 -27.70957 -31.18248
C -18.71726 17.82897 4.73480
C 7.22165 -29.23500 -28.23036
C 21.76421 -4.83150 11.35955
C -31.63045 30.61654 13.31134
C 1.68372 -8.28580 -23.21320
C 2.07174 -8.70365 -24.43205
C -6.25400 -30.85990 3.05624
C 26.95755 31.90455 2.55510
C 31.94049 -10.64565 -26.22490
C 9.28811 9.25328 13.81014
C -30.20540 -30.99014 -13.94236
C -11.85831 12.55272 -26.62239
C -9.66746 28.28158 -10.11469
C 7.52048 -28.43435 11.01541
C 2.27224 -27.80354 -5.72326
C 3.67051 1.93727 -1.61996
C 27.77295 8.87090 -7.26414
C 31.10927 12.18207 -32.25795
C -28.74930 6.12141 -18.50162
C 11.74858 -6.41822 -24.12687
C 1.09435 3.89717 30.01195
C -11.41221 -3.22910 -31.21133
C -16.68243 -28.55331 23.81398
C -27.67741 -12.38929 29.14469
C 9.34937 -9.36710 27.34741
C -13.67728 9.46525 -21.31554
C 4.53297 -11.50104 -22.33636
C 2.89887 -9.95127 -27.72786
C 22.52418 23.43368 -13.25758
C 13.51003 3.18588 18.22348
C 16.81544 7.07578 -28.67861
C 29.80590 11.94813 30.69018
C -20.17115 -19.80201 17.63231
C -0.00561 1.99237 -1.75997
C -31.44921 -0.69216 -5.58745
C -30.72689 -29.50943 30.00929
C 25.26894 5.88500 6.88430
C -10.05522 -2.29236 -30.81203
C -29.43648 3.64961 -0.55078
C -12.31835 3.63788 -21.85486
C 0.82956 9.52592 0.95464
C 4.87892 -18.93820 20.98237
C -23.87100 19.62603 23.69806
C -30.91164 -12.00633 15.62490
C -3.48124 0.41700 30.06251
C 15.90559 11.38404 -22.84125
C -24.99404 -1.77106 -3.67533
C -28.49384 10.77238 3.29394
C -13.27928 8.37624 9.69524
C 2.61929 2.81885 -4.37535
C 30.73810 4.16884 1.68564
C 27.19338 -28.91901 -0.65858
C 6.97585 -28.44739 7.49129
C 24.40428 6.34465 7.59630
C -22.05689 -17.91038 9.71300
C -2.75134 7.75622 -31.92398
C 2.08185 -10.02517 30.08468
C -10.05367 -23.28898 4.94450
C -9.09015 -21.70849 3.18938
C 30.16741 -9.30163 -24.51859
C 30.21616 12.74064 -32.61920
C 28.99186 10.38974 -18.71080
C 14.77878 3.27728 18.53106
C -30.76456 28.47216 -25.32011
C -31.36727 28.69418 -22.65048
C 3.75834 -22.92112 15.49292
C 2.75030 -9.12207 24.18205
C 12.81786 11.80189 -22.43910
C -2.93809 32.36401 -4.49760
C -12.85651 7.61257 7.56143
C -25.02515 20.25591 23.47549
C 1.02493 -15.25540 24.52775
C -30.63245 -10.94435 14.86233
C 1.05170 -1.89792 -26.13862
C 20.18767 -5.50008 13.33525
C 13.19615 -9.25703 -26.39506
C -3.53815 -10.45980 -26.83928
C -28.30359 -20.27145 11.42028
C -13.18833 -14.05075 21.80211
C -9.14545 28.66254 -8.94497
C -20.76265 17.81685 23.98539
C -12.71118 -24.17944 7.00824
C -30.40110 29.20290 8.66904
C 3.41336 -10.10989 23.66321
C -9.73701 0.85436 -32.48904
C 8.50779 -27.57785 9.45812
C 9.78510 17.16656 -23.98919
C -12.98660 25.90521 0.01323
C -5.09459 -25.63835 17.11483
C 11.79981 -16.92606 21.76847
C 8.41392 -8.47489 25.22292
C 16.05300 2.56462 31.11405
C 23.62447 7.20886 8.25678
C -18.48824 -23.03793 -8.10132
C -31.20710 21.89992 2.87739
C -21.36588 -30.03936 -1.39457
C -0.44141 8.78377 27.76504
C 31.12943 19.88798 5.94801
C 15.46312 24.21575 -1.99106
C -6.65460 -2.89313 29.17334
C 23.44874 23.92542 -13.85453
C 27.44579 3.99427 4.31839
C 4.82188 -16.57770 22.01823
C -12.51295 31.45527 -32.41760
C -29.43240 11.38748 2.37548
C -28.67022 3.56074 -3.21523
C -27.30689 -5.75340 -22.73527
C -11.62443 18.05656 -4.74321
C 29.13907 -9.88211 -20.93931
C 32.77014 12.02935 2.91369
C -6.74476 30.45046 -14.23289
C 28.68603 16.19526 -18.28239
C 2.07505 9.73381 0.89073
