1000
C1000 2000 K last frame of liquid_carbon.lammpstrj
C 0.25031 -1.91976 4.70025
C 1.08846 0.73411 6.78661
C -5.57978 1.59469 10.18607
C 5.44974 -3.81380 5.23562
C 1.45295 3.97113 7.06334
C 7.45540 -4.82282 -2.83012
C 3.42172 -6.80222 5.28838
C -6.42396 5.54462 -0.69339
C -1.64172 2.94993 11.57164
C 0.06842 -3.28148 -7.72159
C -1.10927 -2.31861 2.54174
C -0.14238 0.19143 -4.54181
C 2.92298 4.27560 12.39605
C 1.21739 -4.10776 -7.25895
C -3.53880 -1.18267 11.65293
C -6.78307 -4.64987 6.84878
C -0.86599 -1.53310 -8.68776
C -0.82101 -5.56062 -6.41944
C -5.89326 0.04110 1.16162
C -1.43662 3.29108 7.35679
C -0.82503 -3.76142 11.22802
C 0.76402 2.57778 2.86547
C -1.79573 1.75694 -3.59275
C -4.47133 5.11420 -5.57086
C -2.58462 -7.32170 0.59164
C -2.07376 -2.86046 0.47126
C 0.99965 0.46102 12.51286
C 6.08001 2.98901 -9.79356
C -1.84137 -3.14302 -10.50816
C 8.27281 6.77611 -0.11978
C 0.86074 2.09337 -6.26899
C -0.95460 2.65939 -7.83029
C 1.61021 -2.24880 -2.66794
C -5.19779 -8.36339 -4.29788
C -9.34076 -3.84582 -5.94294
C 1.03764 -1.86272 6.89584
C -0.80843 2.95349 -11.84751
C -0.88641 5.91398 3.01708
C -3.78389 6.58910 3.68812
C -2.68004 1.60487 3.00548
C 1.92401 -3.70930 5.10882
C -4.68686 -3.51743 0.92755
C 6.09213 1.11067 3.20507
C 0.94099 1.15118 -12.11257
C -3.29254 2.42532 -8.74228
C -2.94782 -4.23112 9.95181
C 4.15700 -1.72426 -7.02209
C -0.43564 -2.56046 11.93089
C 3.38348 1.86169 -11.91240
C -3.86200 3.57286 10.31559
C -6.70568 4.22679 -2.65750
C 0.14160 3.67736 -11.04981
C 5.02056 4.94502 3.30775
C 0.00217 0.81294 -9.47859
C 7.12922 7.98296 1.62860
C 5.85877 4.76682 -8.51287
C 10.70726 0.14877 -4.72577
C 1.07471 0.82085 0.03573
C 4.29714 0.86804 -5.01793
C -2.26809 0.41902 3.62252
C 1.97924 4.37646 -8.69508
C -7.50325 -2.14139 -3.90675
C -11.02224 -1.22435 0.08356
C -2.25104 3.81880 2.15897
C 4.64342 -2.29683 6.95820
C -7.53598 -5.40524 4.76481
C 1.58901 3.38391 2.30028
C -5.60429 -4.43725 -4.39875
C 2.35320 -2.81521 -10.73866
C -6.73044 5.33213 0.59760
C -3.84041 3.36932 -1.18526
C -1.53599 -5.19541 -10.17743
C 6.62976 0.72245 -9.01971
C -8.98158 7.22435 0.07961
C 3.36384 11.27709 -0.65080
C -2.43501 -1.57647 8.31466
C -2.51351 2.58413 -2.83064
C -4.86804 7.75648 1.28841
C 0.54823 3.18374 -5.42106
C -5.62587 -2.21386 -5.45839
C 3.76230 0.56370 1.95556
C 1.04360 9.80323 3.63464
C -3.66365 4.19905 -6.35222
C -0.08100 5.56588 -5.21174
C -2.77351 -2.94862 -4.64870
C 6.89994 5.40869 10.17907
C 4.11720 2.18606 7.26779
C 4.75239 0.05588 -2.23933
C 0.48308 8.09524 -2.39406
C 8.61397 -8.27212 1.20084
C -6.34721 -1.65743 5.64678
C -3.80275 1.84588 -7.44759
C 1.51803 -3.13783 -1.59487
C 0.23631 -7.85286 0.78727
C 7.77076 -9.90512 -0.88131
C 8.94910 -2.81470 7.01317
C -4.67675 -0.77514 10.96990
C -0.85854 -1.72977 -12.15483
C -5.27907 0.68135 -5.42650
C -6.93106 -6.74550 -5.29530
C -5.16985 -1.90946 2.70095
C 9.90613 0.25482 4.96220
C 4.42296 -1.42031 -10.44982
C 1.21538 -3.82475 1.47438
C 3.70837 -0.55442 -2.95899
C 0.03037 6.18616 10.88505
C 8.81485 -2.83660 -2.94278
C -3.40902 3.55147 5.95086
C 2.82471 -0.79711 11.36881
C -1.28604 -0.63655 8.93507
C 8.21337 4.20319 -5.55576
C 1.86807 -5.18893 8.31868
C -9.91495 3.13169 -2.46841
C 0.93904 -11.18717 -0.44098
C -4.02276 0.62969 -11.29639
C 0.00418 1.62639 10.32317
C -7.73648 6.34900 5.41154
C 0.50953 -0.53892 6.46477
C -0.68851 5.71050 4.34581
C -6.30372 1.73561 -2.39912
C 0.33561 1.90337 -7.68963
C -0.42183 -7.86854 -0.46716
C -3.67849 0.53518 -7.39618
C -5.04993 3.78127 -10.28886
C 4.34894 -7.74797 -1.67733
C 2.61975 7.31666 9.88115
C 4.71764 -2.92392 0.24899
C -3.30453 -4.67781 -6.35631
C -4.82428 9.94059 -4.89613
C 3.18078 -0.56122 7.68835
C -5.76154 -4.85562 -8.17288
C 0.55147 2.44743 -3.19047
C 8.61766 -5.37400 -5.69396
C -10.97855 -1.38271 3.84719
C 4.02308 4.66414 -5.88414
C 0.08916 7.59228 0.13153
C -6.61875 0.56227 5.04303
C -1.57035 -1.98309 -4.88776
C -5.08292 4.71853 4.17720
C -1.66758 -0.63285 -12.30159
C -7.33938 -0.41505 -2.38421
C -3.76956 -5.74621 -3.15890
C 3.41181 6.99047 -4.47550
C -0.15146 11.15918 -2.11812
C 7.87266 1.93760 9.22658
C -3.24120 4.27696 -0.22142
C -7.71107 -1.14132 2.29471
C 2.02183 0.08019 -4.93450
C 5.39957 5.18525 -0.70655
C 5.67591 -8.15259 -6.34328
C -4.57219 -6.17513 1.47186
C 1.20539 -7.81046 4.88337
C 9.40175 3.25102 -0.18454
C 0.09486 -2.59884 3.39279
C 8.15237 5.68379 5.91346
C -0.90586 -4.32971 6.27264
C -5.24005 9.56417 -0.19368
C 5.81729 -10.58795 0.50018
C 9.61320 -2.85689 -0.48518
C 1.31598 -0.37026 -11.93871
C 8.33134 1.65349 8.10386
C 4.64692 -6.18952 -3.86364
C 5.99866 -3.59399 4.02111
C -8.00315 -6.47720 0.21476
C 3.48635 -10.85729 -3.72765
C -5.22313 3.35059 4.59718
C -4.71214 -8.65269 6.00752
C -6.39336 -3.39109 9.15197
C -3.04823 -5.05138 -9.69399
C 3.48136 -8.34745 -6.29434
C -7.10880 9.19974 -4.15897
C 0.54635 -5.31118 8.33190
C -8.32506 -1.18539 -0.42075
C 4.55559 5.39754 -3.61142
C -0.13195 -0.70954 5.13890
C 5.63118 4.97250 0.63922
C -1.86114 0.71493 8.84588
C 0.62258 8.70599 5.60180
C -2.82297 -1.65911 -7.49354
C -8.98819 6.64776 3.51835
C 0.66270 1.74132 5.83788
C -7.15515 -4.17278 -2.46128
C 9.01794 2.48677 -1.25890
C 5.31679 7.00778 -7.19517
C -5.21937 5.46904 -8.91315
C 4.05290 -2.68187 10.37555
C 2.92058 -8.43165 1.14237
C -7.51997 3.42339 1.76213
C -6.07561 5.25707 -3.43258
C -7.24882 -3.67125 -4.01273
C -2.54462 -8.44124 6.52707
C -0.85536 -6.58371 -5.30807
C 1.50591 4.58065 -3.69517
C -10.38044 0.82597 -1.31264
C 8.32441 0.82908 -7.37414
C 3.63421 -2.45390 -1.49161
C -3.03066 -3.27169 6.36287
C -1.82147 -10.55431 3.49067
C -9.78213 -0.88935 6.13988
C 7.23967 0.72984 6.20957
C 3.99384 3.40368 -5.30276
C -8.24533 -0.38316 -6.97050
C 7.45456 1.89436 -3.04410
C -0.58291 -2.27110 -3.65608
C -9.20197 0.05880 7.10716
C 1.95260 7.00811 1.77704
C 9.52796 -3.47387 4.54669
C -7.05909 -5.93477 1.16142
C -7.93412 -5.29991 1.98304
C -3.85137 -2.25502 -6.82769
C -9.41679 4.34937 4.39358
C -5.74236 6.51047 6.85202
C 6.33832 4.25259 1.55775
C -1.92648 5.25370 9.78320
C -11.41662 -2.71299 -3.26209
C -2.60115 10.46480 -2.13464
C -2.78122 0.18786 12.10876
C 5.03767 -5.37724 8.15559
C -0.85672 -8.11046 -7.97919
C -6.27636 -0.93000 2.08818
C 6.67326 -2.27298 4.07472
C 1.02804 8.05265 -1.04427
C 7.15800 -10.30773 0.34856
C -0.59478 7.41376 8.90286
C 5.05828 0.12258 -6.10571
C -9.89103 2.53526 2.76272
C -1.87981 -10.29963 1.03923
C -5.11229 -8.89208 3.12099
C -4.02457 2.35233 0.91024
C 1.33458 1.83609 10.16403
C -10.56375 -0.96053 2.53157
C 4.24023 7.07319 7.82642
C 9.55136 0.09309 -0.02806
C -9.22635 1.22566 -5.07769
C -5.67021 -7.74143 5.40908
C -1.42476 7.40294 -7.65813
C -0.88712 10.45534 1.55502
C 4.32845 -4.67100 5.42483
C -6.03704 4.52841 7.77152
C -1.23308 -3.60928 -7.58540
C 0.23533 10.88699 1.63618
C -2.38834 7.56389 1.08688
C 1.02305 -3.46188 2.85166
C -10.31723 1.01732 4.80565
C -1.75354 -0.24295 -8.93726
C 4.91334 -10.87842 -0.43443
C -6.34254 2.96833 -3.10140
C 3.06494 -4.29004 2.83681
C 5.42770 10.64870 -0.13301
C -3.36605 5.63809 0.16148
C 4.78571 -2.03638 -0.89441
C 6.30442 -8.51735 -5.03245
C 2.78958 -3.27448 -0.93946
C 7.76901 -0.65210 8.21769
C -3.32612 8.54588 -6.61462
C -0.82911 -6.86037 4.26763
C -1.52970 7.15396 -3.67041
C -10.58437 -3.76045 0.07462
C 2.74822 -5.67639 -5.55653
C -3.54055 -6.77908 -2.16459
C -0.34975 0.70650 12.47390
C 2.68645 -0.56382 -11.67087
C 4.64686 6.02203 1.24634
C 7.74308 4.55174 9.35616
C 0.39674 -7.46159 -8.22286
C 6.65777 -1.31679 3.21589
C 3.19990 -10.19604 5.31042
C -8.88272 -6.67562 -2.25385
C 0.53086 -8.77417 3.97664
C 2.03473 -10.74593 -3.79428
C -3.46698 -0.90601 7.97979
C -8.15354 7.21307 -3.64227
C 7.45806 -1.58703 -8.27484
C -4.40722 -2.78630 -9.70884
C -0.11963 5.68477 -9.13315
C 7.64040 -8.13496 3.26924
C 0.76739 -10.54498 5.69482
C 3.47929 -9.41714 -5.33497
C -1.45762 -0.16801 12.34186
C -5.73685 -5.49813 0.92936
C -3.18377 -9.92262 -2.36308
C -9.18382 3.49547 -3.86513
C -5.66451 -7.46866 -5.43849
C 3.36371 -2.79233 7.09925
C -1.84072 -5.41023 9.35823
C 4.01854 -7.72016 1.42369
C 7.40192 0.79894 -1.05646
C -8.47298 0.92022 -6.31521
C 3.72237 1.69672 -8.28612
C 7.06303 8.52261 -0.96739
C 6.67235 8.46330 -5.84175
C -1.27897 10.64222 -2.79939
C 7.23015 -1.11850 0.66139
C -0.57948 -7.51837 1.88808
C 6.09712 1.07521 11.06039
C 7.97793 2.07314 -6.88422
C 9.67095 -0.75310 2.25510
C 0.83325 -2.05407 11.86030
C 8.66492 4.33452 -3.01908
C 1.46766 8.31809 -3.36821
C 9.44913 3.42488 2.24512
C 5.92236 -3.26475 9.04637
C 4.12815 -6.82167 -8.13399
C 2.53749 4.13552 -9.99353
C 5.79648 -9.34305 -4.06608
C -4.04396 5.73785 8.54938
C 4.00441 10.45891 1.72188
C 0.38112 -6.50106 -9.23758
C -2.66500 -1.19972 -11.46091
C 10.55182 -5.53249 -4.19799
C -2.45971 5.73779 -9.28360
C -9.83301 0.10599 -4.49047
C -1.53593 7.97668 6.98853
C 0.87584 8.28316 6.99443
C -1.70972 -7.17190 7.34551
C 1.32045 -11.01889 0.91076
C -0.43363 2.58465 3.63438
C -5.35343 4.63024 -4.66763
C -1.63783 5.08037 5.46891
C -2.81558 7.77177 3.69959
C 3.33752 -4.41120 -6.11647
C 8.32421 5.97387 3.67451
C 6.09459 9.44502 -3.40930
C 0.99945 2.97929 8.01642
C -6.05266 0.41765 -0.22616
C 9.03375 -4.97230 1.35816
C -7.20662 4.50695 -1.49044
C -2.46035 6.06430 -5.76986
C -6.97022 -4.97573 -7.22207
C -0.30684 9.64468 3.74899
C -4.65276 0.77605 10.88907
C -2.06559 -9.83297 -4.86222
C 3.52771 1.60137 11.74543
C -3.11357 -2.46187 1.44878
C 7.92731 6.89506 1.29055
C 1.02564 11.43137 -3.06620
C -7.36012 -2.26844 9.13498
C -2.55824 -6.44499 2.85782
C 9.48679 -1.21035 4.62966
C -1.11108 -3.30086 -2.79596
C -2.39398 -9.38337 -6.21960
C -0.88421 4.48024 6.53893
C -5.13698 -8.47404 0.56675
C 2.51856 -1.68588 7.23946
C 7.81549 -0.90724 -3.82216
C -8.17214 3.24798 -6.05826
C 3.50145 -3.73556 0.28801
C 2.02974 3.58408 1.03223
C -9.68140 -1.20011 -5.35578
C -0.46189 1.49888 -12.29407
C -6.76985 1.09349 -8.84385
C -6.62627 -2.81975 -8.29027
C 5.11319 -5.71263 -8.33805
C 8.99227 -4.17388 -0.98937
C -9.19549 -5.69526 -0.20217
C 4.17171 -5.95765 7.22799
C -8.64392 -3.02887 7.27628
C 3.50930 -11.54797 -0.21663
C -0.35921 -5.19204 9.38377
C 8.45249 4.98248 4.63472
C -3.05127 6.99534 -3.16201
C 7.43317 -6.18084 -2.53239
C -1.48576 10.53676 0.10055
C 1.80059 3.56774 -1.37175
C -3.39703 -4.13104 -1.11253
C 3.05062 -1.68297 -10.87835
C 1.24195 5.61845 -8.64135
C 7.58764 -4.64287 7.97629
C 6.68726 -0.23750 5.31152
C -5.47976 -2.84257 3.82133
C 8.63542 -8.90984 -1.04298
C 10.50560 0.38842 6.38828
C -2.59992 -9.32931 5.49257
C -0.97340 -6.35754 -9.56979
C 6.65459 3.26989 11.03660
C -9.69540 -2.32704 6.39755
C -6.68215 4.78128 -7.35677
C -4.55916 -7.93362 -2.19694
C -0.94631 -4.16247 -10.57356
C 3.38542 11.30198 -1.92974
C 4.33682 7.56175 -1.99774
C 2.31495 0.67772 7.46374
C -0.32382 -11.06887 -3.55677
C -2.84870 -0.45783 -8.08446
C -4.20556 -9.53939 3.90061
C -10.11856 5.18739 1.88503
C 5.26727 -2.36075 9.83979
C 5.23337 -7.27750 0.64674
C -6.50531 3.75599 -8.20827
C 3.49368 8.79635 -6.94424
C 5.67202 -7.59175 6.40274
C -4.17658 2.71119 -6.25298
C 3.02761 1.67663 8.16427
C -9.70486 -4.67210 0.67604
C -0.39571 -1.62346 9.01610
C 4.97440 10.34404 -3.60267
C 2.97153 -2.13594 11.22873
C 9.34924 1.82624 -5.08975
C 10.84306 -0.00823 -2.55690
C 0.74172 11.17039 0.25845
C -6.17725 2.70192 3.74465
C 6.62412 -0.50956 9.10743
C -5.16259 2.85094 9.84310
C 5.21554 5.10850 11.83975
C 3.06326 -1.71201 -2.56493
C -0.39350 9.41222 -6.49341
C 7.85691 -9.58594 1.39595
C -9.72619 1.90545 5.70253
C 5.01135 9.60112 2.06874
C 5.85871 3.92161 2.76551
C 0.51342 4.27080 12.13054
C 2.94625 -7.81591 3.32240
C 0.51815 -1.98433 -8.20821
C -2.68140 4.08749 -11.15553
C 9.40285 -1.27290 -6.76002
C -1.43947 -7.34757 -3.02089
C 9.20806 3.67120 4.81959
C -9.59732 2.00787 -1.59597
C -1.34205 7.71817 0.00461
C 1.45911 -3.92030 10.39707
C 5.79576 10.57876 -1.58502
C 6.56442 -6.52861 6.79387
C -1.78964 6.55811 9.14425
C -7.05954 7.24114 4.62603
C -5.20200 -2.96845 9.75546
C 1.42572 10.34229 2.38436
C -6.99776 -7.79821 -2.86914
C 3.02456 8.92178 4.97101
C 3.08789 5.04867 5.09819
C 2.00621 8.75098 -6.93666
C 4.20082 2.67709 -11.14950
C -3.11324 -9.52034 -3.81943
C 3.04031 6.50872 -7.30031
C -11.43327 -1.56149 -4.00826
C 8.62998 5.47286 -0.64348
C 9.85077 2.54038 1.14289
C -7.86949 4.59102 -6.26893
C -10.43566 4.11082 -0.27276
C 9.64716 -6.59810 -0.63888
C 10.14597 0.67675 2.51387
C -3.08329 -6.27483 -4.40646
C -7.54571 -7.37311 -4.10102
C -4.66417 1.46894 6.52668
C -5.52942 3.12838 -4.32718
C -9.63777 5.66720 -1.77171
C -5.35952 -5.45515 -0.78933
C 3.84488 5.15763 -7.18298
C -4.49771 -5.04217 3.54098
C -10.64815 -3.47238 -5.41360
C -0.40323 7.19771 2.64656
C -4.19324 6.80074 -3.99400
C -5.94032 -7.86738 3.95940
C 5.16725 7.69963 5.40765
C 2.78005 10.85348 -4.39466
C -3.88164 -6.10694 -9.35167
C -2.14739 -6.04627 4.09436
C 6.16706 2.63204 3.65526
C 0.84213 2.72136 -1.83121
C 7.65155 -6.45413 4.51836
C -7.03024 6.01439 6.56738
C 2.80099 -2.20537 -7.29383
C -2.63725 9.50058 -5.65273
C 2.35022 8.19869 -0.72029
C 5.05627 3.98546 5.51656
C -8.84046 7.23563 1.42784
C 6.28005 -10.02517 -3.03762
C 10.49322 1.66749 6.82583
C -3.81682 -5.94197 8.02277
C -6.68247 1.36023 9.26826
C 2.00413 5.57859 4.39656
C -3.83011 1.40891 1.98466
C 5.23460 1.68635 -4.11483
C -3.85409 5.45238 -9.42148
C 5.76847 -3.96081 2.60034
C -5.79746 5.60199 1.91848
C 0.58842 -10.53299 2.12611
C 10.79950 -5.73000 -2.95581
C -6.52437 -1.45998 -4.70581
C 6.69141 -3.03360 -4.34520
C 1.43383 7.85552 10.28849
C 5.62379 -2.68959 6.07616
C -2.36772 0.45454 -4.02978
C -8.62895 -3.08319 -6.71036
C -2.95235 8.25366 5.09871
C 5.84756 0.66994 -10.37540
C 7.61473 3.08255 9.94053
C -5.55554 6.54178 -2.98355
C 2.51804 -7.37226 -3.31648
C -1.27612 5.26939 11.06772
C 6.25652 -8.45525 5.11596
C -5.53065 9.26910 -5.93827
C -5.75266 7.22319 -6.91520
C -7.18549 8.66554 -1.70857
C 4.27951 -3.71896 -9.53583
C 10.30472 -2.46381 -2.68894
C 10.02521 -3.46091 -5.87034
C 4.23667 8.14703 4.14972
C -1.34399 9.60241 2.60546
C -8.98534 -4.29238 1.87693
C -1.74835 -7.32436 -8.85137
C 6.50803 7.17100 -6.30776
C -10.30032 5.13073 0.58911
C 7.96717 6.77027 -2.57984
C 6.79396 6.18441 7.71182
C 6.56371 -6.88753 -6.50572
C -2.95572 1.52961 -12.04522
C -9.44129 -5.68449 -4.41819
C -7.06745 0.05044 8.90026
C -8.63536 2.47446 -0.51798
C -5.15546 -3.47568 -5.31578
C -5.19733 10.08177 -2.56104
C 6.41456 -2.46958 -8.92618
C -10.64698 -5.03239 -2.10969
C 10.65340 0.98971 -3.48832
C -3.55999 -8.68783 -6.02986
C 7.14873 -7.68924 4.42956
C 5.39491 1.33398 -2.50873
C -5.75830 -0.77831 -9.59345
C 5.27246 1.54873 7.19519
C 1.11387 7.82033 -7.40856
C 3.70266 0.16193 11.36810
C 2.34646 4.36460 -2.41798
C 0.96199 -0.70221 -4.49942
C 4.13885 6.66727 -3.15786
C 2.10175 -0.11674 -8.42134
C 6.49539 7.27971 5.14260
C -0.27994 4.27884 -5.83624
C 9.38470 0.13328 -6.69935
C -0.52302 1.87096 11.75327
C -4.21489 -7.08912 -7.71148
C 4.62450 -4.08475 -5.64327
C 5.92385 9.76687 0.81942
C 9.84844 1.19500 3.93833
C 4.90005 0.95094 2.63444
C -0.07490 -9.67079 -6.11089
C -5.55645 -6.45199 6.12789
C -3.73488 7.74636 6.17281
C 7.36556 7.30681 3.92919
C 1.03349 -11.33457 -3.14308
C 5.82772 -6.18667 1.34118
C 4.37713 -5.62123 3.09908
C -4.08356 6.64303 -0.81992
C 1.29226 -2.52138 5.62948
C 2.99487 -7.91716 -2.04338
C 6.00540 -0.73384 -5.46429
C 5.60622 6.31373 9.91103
C -2.08594 -3.63742 -0.71316
C 9.53185 -2.46543 0.85884
C 4.28742 -9.78034 4.87631
C 4.96332 4.01307 -2.92943
C -2.48855 -3.56047 -3.36989
C -11.04979 -3.97656 -1.25741
C -9.00504 6.12750 -3.16668
C 8.61260 4.80157 6.93583
C -3.84204 -5.83313 2.65013
C -1.00322 -2.89857 1.22651
C 5.91912 -10.03658 2.93917
C -7.66349 4.31884 0.71772
C 8.51738 5.25850 -1.93195
C 6.79467 8.76018 0.44190
C 2.35313 5.40123 11.66038
C -1.67607 8.69063 5.59868
C 10.34445 -1.89733 -1.33286
C -4.69743 -9.34772 1.51918
C 1.62460 -5.88253 -9.33358
C -9.14810 1.54264 6.87017
C -8.25168 2.51445 7.43295
C 6.41728 9.49915 -1.92708
C -8.31851 -4.52386 5.37213
C 3.78174 6.99573 3.40712
C -9.50709 -3.23746 2.52638
C -7.92245 -7.52622 -1.83394
C 10.42717 -0.50904 -1.03325
C 3.86835 -11.35791 -2.50024
C 1.30062 -9.41539 2.78859
C -4.40352 2.36387 -9.91465
C -4.23259 -4.10770 9.63035
C -7.98954 6.84352 -5.22367
C -5.08221 7.40825 6.07098
C 9.28539 -5.34917 -0.08082
C 2.63699 -6.69001 -8.31672
C 1.74821 3.29031 12.44953
C 8.73045 -5.95953 2.30158
C -8.25168 5.53794 -5.27171
C 8.22503 -8.50010 -2.35841
C 7.57040 -5.96984 5.85207
C -7.57241 -3.60831 -7.57068
C 6.80802 8.48657 -4.22101
C 3.64808 -10.18800 1.88471
C 1.84629 7.03799 -4.30080
C -10.21501 0.36761 2.36258
C 2.11128 -8.71486 -6.94645
C 2.13591 -3.68273 3.68896
C -7.81439 7.51579 3.31034
C 6.31590 -5.91280 -7.53892
C -1.15853 -11.03458 -2.40547
C 5.96229 -2.18177 -5.27171
C 2.74667 -0.26615 1.36866
C 4.43126 -9.86305 -4.46934
C -0.77667 10.50661 -4.29263
C 5.74818 -2.95251 1.37709
C -9.96214 4.13688 3.07218
C 7.36705 -9.60538 -2.34272
C 5.89410 2.36076 11.56996
C 1.73480 9.44496 4.87968
C -4.81145 1.16777 -10.37585
C 1.65720 -11.54414 -1.70857
C -9.28021 -3.55457 4.80870
C 4.96293 -4.30495 8.99432
C -10.60265 -5.04541 -3.59327
C -3.42918 1.25477 11.43390
C 9.00180 -3.37625 -6.87223
C -4.38797 -2.75454 6.32683
C -7.89062 2.13466 -6.88662
C 4.23154 7.57692 6.45868
C 9.69396 -2.97779 3.18387
C -7.75534 8.47944 -3.05881
C -3.44883 9.94629 -4.55678
C 6.45753 -4.26502 -3.85722
C 6.31862 -3.70969 -8.34135
C 7.45877 -7.60413 -4.55769
C 1.30055 -9.53155 -6.26646
C -8.34049 -0.38569 8.28588
C -1.53223 -1.64356 12.19063
C -10.06041 0.77560 1.02186
C 8.34645 -4.78081 5.84384
C -7.45664 -5.70738 -6.08613
C 1.16533 9.53766 -6.02027
C 5.38479 4.14596 -9.63546
C -5.03839 -4.87318 -3.30481
C 2.45484 9.29211 -2.87044
C 4.98867 -2.72958 -6.05022
C -7.26982 4.60580 6.90018
C 6.17497 -6.66117 -1.75745
C 3.75089 -4.01274 9.63859
C -0.89205 -3.46855 -1.43632
C -2.99993 4.81654 5.33518
C -4.58295 -0.03331 -6.42891
C 10.60821 -1.18202 -4.73446
C 0.94902 3.33938 -4.14678
C 5.69373 9.34254 -6.17649
C -4.89319 -1.33831 -6.17014
C -11.68563 -2.54024 4.23431
C 3.66662 0.49427 -11.54719
C 8.47816 -5.64515 3.58246
C -5.19306 6.83315 2.29425
C 9.30445 -7.87224 -0.05023
C -11.88936 -3.37437 5.24139
C -6.74094 8.75830 -5.48704
C 3.17170 8.32276 6.33863
C -3.26505 -7.26226 -8.74941
C -7.49741 -7.59934 -0.44655
C 7.70082 6.12089 -4.52865
C -3.73041 10.23222 -3.02848
C -3.78998 -7.74972 6.55209
C 9.27988 3.62693 6.39463
C 7.09389 -9.33896 2.65577
C 1.82574 -4.68423 -10.11533
C -7.08184 8.58937 0.80905
C -4.93701 8.37041 -6.69247
C -0.60126 -10.23688 -4.79254
C 5.27090 -4.89937 -4.40821
C -1.21668 6.18552 -4.82255
C -7.89205 3.68747 -0.66779
C 6.79188 5.96901 -5.57475
C 5.55184 -9.47982 4.38399
C -5.78507 6.00265 -7.74058
C -10.45550 -0.35943 4.99331
C -5.31447 6.46872 -1.49291
C -1.40479 6.44234 -8.65645
C -0.47713 4.77745 -10.24316
C 1.62596 3.37172 -11.14024
C 3.10727 -3.91051 6.15531
C 2.89945 7.59345 0.64622
C 0.14024 7.28269 10.05669
C -4.29034 -0.64601 2.96827
C -1.63070 -10.54420 -0.24567
C -7.84959 -3.81386 6.53971
C -10.44189 -0.00959 0.04461
C -1.82205 5.29778 2.00171
C 2.24819 10.92005 0.14495
C 6.40632 -5.39617 7.63662
C -8.19166 -3.60403 -1.76769
C 4.41771 9.78683 -6.24267
C -0.42209 -6.70959 6.74629
C -2.34568 -4.34560 5.99682
C -0.39811 2.82041 8.19656
C -5.50543 -3.61466 -8.90958
C 0.53300 4.63400 6.19070
C -6.54207 -1.16621 9.52981
C -8.79444 -2.79006 3.61371
C -0.80169 7.53816 -2.48494
C 2.73701 -11.03730 0.94213
C 0.46720 -1.64764 -11.69926
C 5.05939 5.68528 -7.89188
C -0.23417 1.52566 4.61663
C 3.31276 2.05467 -5.88123
C 2.94820 -5.17143 7.27466
C -6.68156 -8.22921 0.60843
C -0.34956 11.11808 -0.54482
C 10.01444 0.83802 -5.74095
C -5.31907 -1.68900 10.11269
C 9.80131 -4.85108 -5.15425
C 8.50908 -4.06647 -2.29158
C 1.88466 -8.15642 -1.11149
C -5.66185 -4.09785 3.24610
C -2.62442 2.78145 6.88579
C 7.85821 5.21435 8.10684
C -6.04546 -4.46493 8.25827
C 4.08582 -7.08666 2.77115
C 9.32325 -3.44859 1.93585
C 1.86457 2.19553 -11.76881
C 10.20496 -1.91017 -5.83151
C -9.56757 6.32670 2.27546
C 7.69913 -6.59168 -5.71950
C -5.59067 -8.23556 -2.97357
C 8.35066 -7.56090 2.24765
C -4.53070 0.27401 2.03710
C -2.51902 6.10676 1.17932
C 2.21130 3.68416 -0.13527
C -1.72313 -2.32859 -7.95728
C -1.69500 -7.52071 -0.65055
C 4.01096 6.84877 0.25781
C -6.82676 -7.42211 1.74340
C -3.61308 8.25152 0.87964
C 9.81427 -1.62106 3.27508
C 0.18711 -2.59514 7.80049
C 5.40839 8.80199 3.08521
C 6.99685 0.93351 9.86922
C -5.10483 5.57567 7.67694
C -2.26278 -3.44820 11.01832
C -3.06644 -10.05901 2.92264
C -8.70181 -6.74511 -3.74437
C -2.30433 -10.81697 -1.62164
C -8.45846 -1.93493 8.21814
C -8.63413 -2.18035 -1.44124
C -0.74659 1.71176 9.10594
C 3.64011 2.71916 -7.38724
C -7.69013 -5.95065 3.31689
C 5.51729 -0.95735 9.97670
C -11.02671 -0.36909 -3.54297
C 3.07817 7.57873 8.48612
C 6.44126 -1.69055 5.44000
C -5.87239 0.60058 -9.60784
C 8.80247 -4.60125 4.59919
C -11.10210 -3.88517 -4.15275
C 9.48939 2.78878 3.74750
C -7.30353 -0.32663 -8.10482
C 11.54781 0.85041 7.31789
C 4.08978 5.67368 -4.88238
C 3.13748 8.41669 -1.88281
C 5.42693 -0.75361 -1.41447
C 6.74852 -0.30168 -0.45731
C -4.14184 -9.06451 -4.78586
C -8.85012 -5.12826 -5.46954
C 2.48919 -7.64821 4.59116
C 4.68828 11.09157 -2.54899
C 1.04334 -7.49569 -3.76783
C -8.15283 -1.46873 3.76383
C 1.93853 -1.48571 -8.09302
C -3.37823 -9.89118 1.53441
C 6.72129 1.46070 -4.37664
C 6.25088 1.66976 6.11778
C -0.14874 -9.67669 5.01658
C 0.70069 1.78994 -0.70973
C -5.97364 4.86574 2.97417
C 7.45236 -0.02618 -8.17904
C -7.64547 7.90576 1.97935
C 1.99933 1.84011 12.02079
C 1.73395 -8.17995 0.38129
C 7.07801 -4.68572 -7.55273
C 5.61524 4.20397 -1.77715
C -4.67539 2.84867 5.77720
C 0.65006 -3.93171 -10.55399
C 2.77571 -3.93644 1.45870
C 2.28390 10.80382 -2.82312
C 3.17028 6.04569 10.69175
C 3.31101 -6.54656 -4.38513
C -2.29370 2.90371 -11.68357
C 1.94806 -10.71053 5.57010
C -1.69234 8.03806 2.66037
C 4.25721 -0.42853 -7.13612
C -4.20621 -7.17391 0.48442
C -0.21745 8.06658 -7.13916
C -5.84504 9.96127 -3.81710
C 3.90808 3.47122 6.88469
C 8.70446 2.82223 -2.78656
C 1.19839 5.76631 -4.57091
C -8.42139 3.65597 6.60641
C -2.37654 -1.87037 2.74587
C -4.39458 -1.52214 7.14767
C -0.26749 8.00987 7.66715
C -4.24860 -5.34612 4.88357
C 1.47888 10.59834 -5.11594
C -6.75552 -7.06903 3.05870
C -1.65734 7.57873 -1.40987
C 2.30283 8.15980 7.50510
C 0.20992 -4.42986 10.35318
C 8.71211 2.82748 -5.80292
C -1.19276 3.78107 -6.83515
C -0.85063 -10.56410 2.27883
C 4.75122 -0.04031 -10.79642
C 0.94805 5.44635 11.69662
C 8.42974 -2.16084 -7.36928
C -10.71077 -2.04675 -5.19722
C -0.18685 -5.21363 7.03871
C 1.96038 2.24576 9.00715
C -11.37293 -2.67436 -1.74059
C -10.45479 -3.23435 5.57554
C -4.03825 -9.44929 5.22583
C -5.16026 2.17731 -5.22964
C -9.20716 3.36038 5.44013
C 3.07694 -11.99336 -1.47015
C -1.87009 -7.04310 1.69575
C -3.80172 9.50298 -0.00349
C -6.61305 -5.63192 5.95696
C -1.70278 2.75624 2.90656
C -5.75662 4.34729 -9.29158
C 3.52998 0.30875 -8.15201
C -4.10009 -9.15993 -1.92663
C 10.79749 -1.30778 -3.38720
C 4.19298 3.98027 12.23367
C -10.53594 -2.34279 0.63027
C 5.48086 2.17777 -10.90221
C 4.36910 11.28707 0.40735
C -1.16541 -8.80788 -6.83560
C -1.72553 0.83070 -12.30340
C -0.29193 -10.96664 -0.89298
C -0.93613 4.14784 11.96362
C -8.81881 5.72333 4.58059
C 7.07179 6.44072 6.21754
C -4.72485 2.45955 -0.44616
C -6.31921 0.07637 -4.64092
C 8.86729 4.49334 1.69070
C -5.68499 1.70431 -0.99974
C 1.81582 -7.73216 -7.85110
C 1.89030 -2.94784 11.38385
C -11.01420 -0.06819 -2.25638
C 0.59795 7.30045 1.44042
C 5.43970 0.11915 7.90136
C -2.41018 -6.18265 8.33605
C 1.55634 -0.72237 11.92940
C 1.27955 -5.83825 -5.61468
C -4.93020 7.32872 3.52535
C 2.64068 -9.24322 2.59334
C 1.62927 -0.02988 0.73703
C -0.01002 -7.07745 5.43093
C -1.08263 0.35303 4.42904
C -1.79223 4.75165 -10.28381
C 6.48126 -1.69470 1.76369
C -3.17742 -3.51075 -9.89280
C 10.58818 -6.16100 -1.75660
C 8.07568 -2.17341 7.98277
C 1.88862 1.36308 -5.60781
C -4.21470 -7.36546 -6.29622
C -3.11836 7.35348 -1.76963
C -8.93568 4.98132 -4.06660
C -5.80634 9.47970 -1.46309
C -1.96486 -2.38668 -11.61603
C -1.98547 -4.70905 -6.88947
C -2.21371 -2.59780 7.36709
C -5.72771 0.60330 6.28262
C 5.11157 -10.33243 1.66697
C -0.93788 -3.07709 6.99955
C 0.54045 -5.32402 -6.57741
C 7.23929 2.79701 -7.88319
C -6.09849 3.44568 8.75571
C -2.18486 -7.17365 -1.92592
C 7.71093 7.40624 -1.20639
C 5.42019 -5.26762 2.36394
C 9.97432 1.15682 1.08059
C -6.66140 3.68695 2.86683
C 5.63170 -7.59285 -0.66682
C 8.63296 1.22443 -0.63564
C 4.61626 6.53115 -0.89499
C -7.29277 -0.91515 4.76741
C 4.06994 10.39544 -4.95790
C -3.06683 0.62878 8.11754
C 5.10061 0.07701 10.99401
C -1.58403 -0.52032 -4.54512
C -6.76175 1.43698 4.08645
C 4.61704 5.95138 10.81284
C -5.80705 8.80601 1.01130
C 4.05063 7.57530 -7.08231
C -3.49167 -5.97263 -5.95402
C 3.28041 0.02483 -4.18315
C -8.41477 -1.35678 1.23979
C -7.38715 2.41676 8.53039
C -8.83871 2.68759 -4.85315
C -11.31420 -1.38796 -1.30240
C -8.80260 -1.45700 -6.44926
C 0.58498 -6.82478 -5.03686
C 5.16770 -4.40167 -8.85280
C 7.18846 4.82976 -6.32681
C -3.39107 4.80033 9.72097
C 6.70762 -0.06884 3.83656
C -3.20419 -4.45229 -2.51295
C 3.04076 -3.94195 -10.11475
C -6.92309 7.50873 -5.97904
C 1.14978 -2.91873 -11.36971
C -5.96340 -5.00283 -2.26591
C 2.38016 6.54606 3.03206
C 6.73854 8.02763 2.89120
C -1.34399 9.98940 -5.59795
C 9.62110 1.95173 -3.66127
C -1.72508 -6.73273 -4.14990
C -0.23638 -7.68147 3.26574
C 7.32699 -3.33178 8.56993
C 7.85568 -7.39210 -3.27733
C 4.15745 -5.68897 4.52543
C -9.65061 -1.94978 1.56183
C -3.45440 3.28933 -2.42317
C 2.19555 -9.87251 -5.11263
C 3.02236 4.05683 -7.42632
C -5.64162 7.59513 4.74213
C -7.85296 8.25794 -0.38840
C 4.32819 -7.17294 6.36268
C 0.46299 -7.87930 -1.51657
C -4.45201 -2.37222 1.45546
C 6.89035 4.22854 -7.66078
C 4.50432 4.90275 4.62687
C -9.67802 -5.91170 -1.50795
C -3.05160 3.57442 0.96527
C 5.03754 -10.80576 -1.81630
C -10.16957 1.41008 3.40511
C 6.88477 -0.04881 -4.55231
C 7.86300 -2.25262 -3.82002
C -1.67782 -9.95374 4.73253
C -9.05457 1.78410 0.76069
C -5.58614 -0.88935 6.64900
C -2.90594 2.57162 11.27677
C 7.97521 0.37980 7.52675
C -10.14896 4.20676 -1.58826
C -2.43196 4.55667 -6.75017
C 8.48043 -4.11911 7.04668
C 0.96218 0.96657 -8.67395
C 2.40661 -4.52334 9.58673
C 4.44552 2.74522 11.79761
C 4.90245 -6.74628 -2.58548
C -3.42892 1.61744 7.22053
C -5.41066 -2.58698 5.10545
C -4.72861 -1.39509 -10.25937
C 4.77754 3.06836 -4.16105
C -0.55789 9.00080 4.99500
C 4.01770 4.03492 -10.24161
C -3.77598 -3.39712 -5.79910
C 4.49673 -0.82427 7.46757
C -4.36171 -6.63958 -0.93265
C -2.82174 -5.23943 4.96408
C -3.03299 6.64173 8.37281
C -1.97788 2.34079 -8.74921
C -7.34722 -0.32981 -0.94801
C 0.67165 5.60529 5.04776
C -3.81922 6.10799 -5.10991
C 8.28052 5.66577 2.34080
C 0.28473 -3.74048 0.56227
C -1.25655 0.85488 -9.44968
C 4.54651 6.01665 2.64533
C -0.01793 -7.64076 -2.80302
C 5.44832 6.49342 8.39893
C -3.98698 4.51518 -10.61524
C -2.89622 7.64641 7.32716
C 2.83379 4.25252 6.51870
C 8.45755 4.92674 -4.39110
C -5.68441 -4.22393 1.82507
C 6.64889 1.52566 -1.91756
C 2.58954 10.47336 1.66898
C 9.27009 2.36834 7.10275
C 9.37504 -2.26637 5.53600
C -0.42527 1.50491 -3.73257
C -8.64334 2.40205 1.84517
C 1.73486 6.65087 -7.73980
C 5.15208 -2.43017 -9.81009
C 9.07530 -1.16167 1.04325
C -6.63035 0.57893 -3.20615
C 0.66115 -1.68738 -3.50284
C -9.80786 6.41032 -0.36818
C 6.68940 2.12513 -8.88138
C 0.65168 11.04723 -4.37995
C -2.66850 10.28674 -0.60698
C -2.55026 -2.21755 11.68644
C -6.47698 -1.50490 -8.55656
C 8.11892 -4.43875 -6.64224
C -5.05207 -6.09235 -8.53536
C 2.44836 -3.57415 -6.89699
C -3.91632 -0.76457 -11.15268
C -4.69004 -4.92472 8.49837
C -2.61256 7.37325 -6.65300
C 5.73153 2.80881 5.15913
C -7.07445 2.38785 -8.07098
C 4.54451 -7.95605 -6.99474
C -7.97723 -1.50782 -2.70592
C -2.98100 -0.85649 3.35941
C 9.02747 4.39422 0.25722
C 7.63528 7.24672 -3.82371
C -4.52468 -4.02985 -0.32462
C -4.42783 -6.54974 6.98309
C -3.81099 5.33213 4.14713
C 6.55094 4.71983 11.35896
C 0.24875 -3.30942 -0.83697
