1000
C1000 4000 K last frame of liquid_carbon.lammpstrj
C -0.88194 -0.52492 0.46128
C -13.14069 31.74852 -18.80479
C 8.15794 -16.40917 14.94932
C 25.79044 4.83326 -1.14027
C 12.20601 20.99721 -24.67098
C 15.67600 -18.23831 -6.82568
C -27.72155 -13.21039 -5.75897
C 29.39252 -32.57512 -23.40566
C -30.58396 24.67442 1.18009
C -5.33339 7.79686 -12.74076
C 22.75456 -8.02677 27.75854
C -4.83815 -21.90672 15.84225
C 23.56386 -1.37305 -9.01343
C -22.24293 -0.43080 2.19728
C 30.22390 -20.54682 8.04455
C 15.43966 -11.49255 -4.65628
C 20.33314 21.51436 27.24113
C -19.89851 6.64659 -7.04932
C 23.69759 -0.47008 -7.68678
C -33.34133 -12.69564 -12.70011
C -23.96013 1.56033 13.39839
C 16.44148 -0.55831 -26.13726
C 6.44087 31.59697 3.33653
C 21.77277 -8.90900 27.65651
C 14.80356 -14.95631 -8.03079
C -15.02707 1.74462 -11.75319
C 1.67147 -5.56049 10.00321
C 7.25821 2.66711 26.64347
C 2.27340 2.52456 -23.99463
C -2.84643 43.48364 -21.83677
C 18.67907 22.05225 25.41548
C 5.29482 26.73726 -4.81866
C 25.23711 -7.31231 28.23407
C -28.13473 31.79195 25.79819
C 14.79948 -8.20004 -13.50248
C -19.11001 25.68677 9.72292
C 25.87911 8.06866 5.40843
C -6.80686 -9.98582 -14.01768
C 27.80950 -38.72767 -27.34924
C 13.51846 -14.67589 16.14937
C -8.52620 20.06390 -20.79003
C -24.75964 -6.81298 32.63886
C -17.66157 -4.49469 0.28211
C -20.10250 -19.20546 -3.92451
C 15.67574 21.44682 24.55238
C -4.07721 -10.28757 -16.46407
C 8.18932 1.90227 27.32488
C -14.02369 -2.94019 16.55551
C 18.63097 -15.42971 -5.52762
C -19.56267 -8.55397 6.15862
C -20.00780 -24.73801 -27.62155
C 13.28322 -3.89846 -15.77611
C -22.62382 -31.41585 29.59618
C -12.19052 -31.42713 -2.11999
C -18.07597 -1.72543 -3.95102
C 18.93531 -11.78593 -18.21562
C -5.97792 15.45474 0.51632
C 14.04086 -7.98568 -19.44841
C -24.29876 -8.83938 35.89247
C -12.93844 31.87292 -20.07925
C 4.93992 26.12802 -3.69763
C -4.27057 -11.19061 -17.20258
C -13.40075 -4.35266 18.56037
C 5.69250 32.76986 3.65526
C -1.60017 0.95561 11.27534
C -21.37826 -17.79286 -2.14080
C -27.70094 -12.45898 -4.56184
C 31.75114 -21.20774 9.69129
C 4.82156 33.40803 4.38308
C 13.97870 -0.49037 -24.89021
C -9.66564 18.24895 28.23472
C -23.52828 2.60079 4.62506
C 16.14136 27.03933 -1.21787
C 28.92090 -31.42758 -22.83088
C -22.22996 -21.58326 25.15457
C -11.99891 33.86379 -24.01149
C 25.97816 32.37017 -10.26566
C -9.00763 14.92819 -13.57391
C -16.30530 -17.25509 4.97730
C 38.49023 -26.65467 16.80467
C -0.28123 5.37316 -15.35775
C 29.63580 -2.09096 -3.01331
C -7.97729 -13.49581 -7.67446
C -7.11697 -27.39863 31.19223
C -4.26046 -6.21954 -21.36195
C -15.84934 -9.82941 -1.44824
C -13.55153 -10.51451 -12.32544
C 18.61237 -13.74232 3.35273
C 0.61979 0.55916 -2.41098
C 3.59046 1.10801 -25.97948
C -4.56098 -8.00901 -15.59603
C 22.91312 -8.21275 -2.12797
C -22.07776 -4.53021 2.26366
C 19.71681 -15.18960 6.59176
C 12.15286 -0.85065 7.10178
C -19.26889 10.15696 -11.11962
C 8.62946 31.04073 3.00542
C -20.26618 25.07435 10.02201
C -11.83329 -5.55031 20.11752
C -10.99171 -13.56361 -0.66720
C -0.23365 -2.64642 10.93768
C 6.24757 31.15748 -9.27252
C 6.56358 3.63023 26.22122
C -5.93838 20.11259 -10.40574
C 17.24242 -13.93400 1.88212
C -10.01263 -8.92955 -1.42938
C 3.73436 3.60949 -15.03565
C -19.24886 -31.36853 -30.48163
C -14.49754 -1.41234 14.68582
C 0.91960 5.34808 -15.06423
C -8.74977 39.63918 -22.60187
C -0.88920 -1.52960 11.07926
C -13.10050 3.23547 -8.94147
C 11.27005 -17.01784 19.19919
C 7.61409 -2.69322 4.45691
C -8.09202 -10.65388 -1.02645
C -4.92612 -3.72266 -22.03091
C 5.66275 -11.74017 -15.90245
C -16.47655 5.32247 -12.53858
C -9.13527 -12.50714 -3.81204
C -5.91906 -3.08870 -19.89244
C 15.71230 -15.99236 -8.03455
C -5.73548 -3.84355 -18.75410
C -25.30103 -31.91744 -32.36354
C 5.60713 -10.50790 -16.23006
C -11.01219 -8.14799 -1.91658
C 6.84400 -8.25585 -16.31271
C -9.95002 -12.48251 -2.84879
C -5.94881 20.53983 -21.88338
C 21.67340 -16.74514 -1.12400
C 17.74162 -5.50675 -17.20842
C -12.85625 -11.72779 -18.08384
C 4.45635 2.51464 -15.43119
C -13.87065 25.50939 9.08773
C 32.27816 20.17851 25.11315
C 26.04907 7.21826 1.46440
C 29.97212 -27.81732 -24.12700
C 21.13058 -14.81208 -13.15639
C -30.42411 -12.85861 -13.75950
C -21.87370 8.68602 -9.45668
C 10.56939 -18.06848 19.04850
C 30.82029 33.60703 -10.91705
C -5.13666 40.43013 -22.26758
C 6.01441 28.51833 -7.92591
C -12.53590 -6.24955 -3.55347
C 10.00842 -1.16096 5.95644
C -13.33405 -32.31584 -26.66653
C 15.97613 -13.89764 16.35641
C -26.41779 -5.62603 1.86915
C 7.00729 3.23106 -24.20615
C 18.63149 -6.84092 -19.99291
C 10.39534 -3.71086 27.50580
C -6.20233 39.82444 -22.35418
C 3.42866 5.06319 -15.10261
C -12.59787 -26.92997 5.34724
C 7.50143 23.71729 -0.26466
C -11.17470 37.61401 -24.18262
C 20.57842 27.63622 -8.46587
C 18.56693 -9.58179 -18.31305
C 6.20181 17.78107 6.72049
C -13.90565 -9.23687 -11.88212
C 25.89214 -6.97018 29.36269
C 24.87696 -11.45592 -2.62956
C 0.70588 2.53396 -24.25314
C 20.51995 -15.64939 -3.15935
C 20.44035 -13.88714 -4.95187
C 34.66904 -4.01306 29.78429
C -4.82597 -7.08433 -16.33585
C -10.36313 38.49688 -23.88430
C -22.79262 -17.72849 -1.59941
C -6.96782 -29.14008 32.84357
C 10.66124 -3.91453 26.38561
C -11.03190 -6.36137 20.72833
C 10.15206 -4.53980 -19.99200
C -15.87021 -9.02179 -2.58062
C 23.94210 -7.72451 28.16225
C -11.42880 -2.93799 -7.27470
C -23.44246 -44.58658 28.97875
C -17.06942 33.92810 19.61622
C 27.35438 -36.34632 -26.05895
C -5.53778 -9.77800 -14.40020
C -12.85547 -15.87400 1.89067
C -15.10246 -4.45942 0.27408
C -2.20820 27.73258 24.65655
C 25.39995 -6.70324 -9.84230
C -9.40266 16.50012 26.37316
C 10.59570 -2.01920 -22.63052
C 29.35118 -28.95527 -23.50004
C -20.74651 -23.72660 -27.32272
C 22.95104 -3.57072 -9.41889
C -6.65959 9.91252 -12.75074
C -20.72311 7.11279 -7.94205
C -20.93443 -19.54927 -6.24235
C 28.49635 -39.00070 -28.63498
C -27.82624 10.12546 6.03922
C -25.94128 -4.32920 2.05273
C 20.95348 -16.20621 -2.06081
C -16.26044 3.99557 -12.18374
C -25.03299 -9.83589 36.35679
C 3.46198 18.80694 -6.28351
C 5.77943 4.82639 25.62894
C -16.46443 25.84791 11.69396
C -19.56604 -2.06315 -1.92475
C -21.57143 7.63085 -8.65833
C -1.68755 -0.49472 -21.21267
C -6.65213 -31.96457 34.98165
C -11.98154 -15.10359 -10.21704
C 27.75309 -37.32754 -26.84570
C -25.80172 -9.27388 1.02296
C -9.88014 39.21738 -23.07734
C -21.07282 -32.84673 -30.67046
C -29.86230 -11.61247 -14.40999
C 27.43422 5.67660 -5.61682
C 8.39065 -11.17155 12.51986
C 3.92948 -14.36345 18.89170
C 7.00508 -16.48384 15.51276
C 25.54645 -12.76118 -0.64354
C -27.10211 16.73212 3.55433
C -24.69936 32.50895 25.45438
C 19.99852 -15.12939 -5.89231
C -21.32168 -36.22481 30.80725
C -12.21931 -28.34601 0.10152
C 17.48654 -14.58397 -5.32992
C 26.18702 6.15375 0.86752
C 6.17834 29.82720 -8.69145
C -24.97874 -20.75613 -4.30398
C -18.16627 -30.66378 -30.66041
C -15.78633 26.06708 10.56988
C 17.00744 -9.07093 -21.53366
C -10.50574 14.58897 -11.00307
C 22.62407 27.02798 3.86470
C 19.18041 -0.55338 -11.92199
C 16.13397 -1.02198 -15.58547
C 12.95931 -11.49365 -3.49759
C -11.98530 -14.95190 1.18671
C 22.43369 8.82682 8.55904
C 12.58367 20.46470 -23.70378
C -8.59835 19.62662 24.54661
C 0.20889 6.03772 18.49665
C -17.94834 33.34347 20.51096
C 12.38693 20.35333 -21.09307
C -9.80300 -10.66710 -15.51475
C -29.96426 13.06170 5.93673
C 29.02867 -30.09529 -23.04369
C 14.88621 19.45289 28.83938
C 7.92582 2.30449 -24.19253
C 1.10713 1.18521 -3.51775
C 22.87636 9.69841 1.26572
C -15.70874 2.82132 -12.00509
C 21.53682 28.37396 -9.11980
C -14.67898 -23.41467 6.74435
C 35.68590 -25.10549 14.96670
C -4.24944 -22.89953 15.24148
C 7.64566 -7.47812 -16.97259
C 22.71891 -2.36561 -9.48753
C 16.93465 -7.71077 -21.41666
C -4.49460 -10.00294 -17.92321
C 12.17360 -14.46548 16.47862
C 2.05891 5.28190 -15.30531
C -19.77411 18.94858 -8.78026
C -1.05443 -0.19550 11.04730
C -21.71301 -20.08412 -8.61120
C 23.04639 30.21321 -9.87601
C -2.76372 -22.80224 9.87454
C 17.66085 28.02878 -4.24667
C -9.35540 19.64807 -19.92037
C 1.26652 -30.62191 19.59462
C 32.66135 -21.70551 10.34865
C 22.28687 25.92270 4.56691
C 17.60698 22.44754 24.56489
C -12.33974 -4.49631 -5.49735
C -24.28424 -32.46959 -31.76335
C -23.83755 -5.35630 30.45462
C -12.80199 -27.99759 1.30047
C -5.43776 -5.05319 -18.02128
C 10.25565 -9.12862 -18.45112
C 22.86969 22.48870 6.40403
C -29.24746 19.87916 -26.32647
C -26.54931 20.85143 3.44387
C -18.17249 -7.82317 6.24107
C 31.70970 34.58306 -10.29288
C -29.22037 -13.14661 -13.19185
C -13.79098 -34.54656 -25.03062
C -16.82744 26.17094 6.71285
C -12.95795 25.33393 5.66694
C 2.38917 18.14589 -5.39124
C -16.78887 -2.84620 24.72325
C -17.99138 26.25115 9.19274
C -1.83015 25.88791 26.34756
C -6.98765 20.22077 -22.73326
C -3.36008 27.45791 24.62005
C -26.17581 -6.77759 1.77432
C -8.41341 -34.27314 -1.35769
C 0.79319 12.10156 -1.52752
C 24.59719 7.07896 10.72656
C 22.73693 22.27971 29.55327
C 1.80960 6.94218 13.96636
C 20.63093 -17.39504 9.63820
C -7.55880 39.46934 -22.34679
C -31.63677 -5.81388 -15.58365
C 5.80290 28.22948 -6.56101
C -9.84176 -14.87976 -8.74714
C 39.15388 -28.80132 18.27533
C -2.56543 27.02109 26.00627
C -12.72278 9.26073 -13.05235
C -27.80225 -11.06680 -2.17944
C -9.32124 19.58292 -18.49086
C 18.27750 27.46272 -5.42760
C -13.54381 -27.56341 3.64638
C 0.12429 17.09778 30.22119
C 23.89627 0.43068 -5.27605
C -31.68286 22.97132 -23.74695
C -6.76687 21.97583 -11.98590
C -6.77918 -12.19256 -2.41468
C -22.01709 20.55500 -6.36428
C 20.87271 -14.78959 -3.99413
C -11.77890 25.53002 5.94801
C 21.06783 -9.11695 -3.55924
C -11.83219 -29.31393 -0.56278
C -22.79625 -42.25079 29.63021
C 0.65460 14.17366 -3.14593
C -12.72673 6.01082 -10.88114
C -3.27212 42.24262 -22.22752
C -12.20491 32.66199 -23.19415
C 11.17755 19.30477 -19.64196
C -11.52545 16.95245 7.12894
C -25.00240 -0.36650 13.93979
C -25.89396 -8.01841 1.56721
C 7.52295 26.12680 -17.10529
C -7.46870 22.97007 -12.47557
C -15.64314 -7.35781 6.88067
C 31.23006 -26.01624 24.70108
C -8.11063 20.27334 -22.05256
C 23.56484 0.38407 -4.05895
C -16.46113 -0.52006 -5.46695
C -22.45904 -23.01381 25.00017
C -13.23552 -33.37918 -25.87713
C 8.51686 35.53205 5.79030
C 7.70497 -5.21168 -17.58088
C 0.75378 13.00083 -2.62787
C -27.02368 31.98182 26.36078
C 15.78490 -6.52459 -18.54083
C -14.03302 -20.68541 -1.36229
C -2.36993 3.26224 11.32039
C -18.85371 -3.42396 25.47123
C 10.84689 -5.35319 24.87448
C -12.48948 8.18450 -12.49852
C -24.53639 -7.41667 33.76909
C 9.33777 31.94681 3.15658
C 15.11529 22.12589 25.56166
C 16.94573 27.52605 -2.02121
C 23.73007 -7.09347 -2.23110
C 39.19524 -27.78011 17.32661
C 10.34990 -6.96201 -19.10459
C 0.67826 2.42383 -21.92603
C -15.57404 26.02036 5.87340
C 18.41726 -10.73348 -18.18075
C 6.71235 1.91977 -24.57323
C 20.24653 -17.55282 10.81128
C -6.26800 -31.40275 33.92188
C -23.08477 -19.90878 -24.57330
C 8.38294 -4.15586 -17.62535
C 23.75580 -4.71385 -9.46854
C -15.34048 -0.31082 -6.37044
C 1.13292 15.73542 -5.02188
C -21.74866 25.37539 10.04450
C 25.52330 9.00229 3.23605
C 23.65487 31.17679 -10.47289
C 2.45899 6.47164 12.96117
C -12.87537 -5.30840 19.44544
C 18.27776 -1.67752 -13.91656
C -10.93985 -15.27452 -9.29851
C 31.48741 20.57204 26.31430
C 17.43274 28.10528 -3.03081
C 20.43970 9.97086 0.69289
C -0.56230 0.32185 -21.35372
C 25.77216 -7.89201 -9.99820
C -14.84544 -18.45443 -0.02624
C 7.58693 -1.23686 -16.43308
C -12.30792 5.15634 -10.16278
C -7.03750 -28.41718 31.69233
C 26.94323 5.25934 -4.26956
C 14.82203 -11.90131 -10.04578
C 13.59482 -1.45920 -16.08719
C -25.65055 32.26101 26.23153
C -10.38536 -7.44085 21.05352
C 21.68733 9.92458 0.74267
C -23.54669 -28.53503 27.45789
C -0.90281 5.93731 19.35708
C -30.90535 -8.22565 -15.17586
C -27.78553 -13.07031 -7.07713
C 16.22796 22.69159 24.78956
C -8.48789 18.14725 -18.35129
C -30.54345 20.38451 -25.67942
C -22.86262 21.23407 -6.06616
C 5.15208 25.63777 -2.43302
C -27.66328 22.41357 1.80906
C -8.89867 16.19235 4.50034
C -19.03138 -4.69875 0.49836
C 28.77301 -3.08332 -2.28724
C -13.07152 -12.82898 -11.38403
C 10.27937 19.70524 -18.70405
C -14.05195 -7.98477 -0.20178
C 20.55930 1.45993 -10.91122
C 10.12510 -3.32044 -20.29005
C -21.94526 -19.76870 -11.16085
C 3.18623 1.77943 -24.66943
C -10.41155 -8.32696 22.10896
C -12.88717 -32.38461 -2.94427
C 22.69220 7.50140 7.43665
C 15.16222 -0.85240 -25.50051
C 4.48357 1.44955 -25.12312
C 6.21186 35.04680 6.38997
C 29.55105 4.51278 -22.57685
C -28.65006 11.09941 5.85493
C 32.81162 35.07227 -9.76698
C 6.49202 31.75429 -10.49804
C 14.76707 -14.79866 15.99937
C 27.52902 21.92488 28.47158
C 14.59944 -9.79408 -11.41119
C -8.45010 -36.37217 -2.56428
C -23.06746 -30.22773 29.24303
C 23.22932 -1.15551 -10.34007
C -12.60798 -14.26635 -10.90752
C 10.83179 34.46217 5.47507
C -2.12425 -23.12615 11.01547
C 17.85104 -18.23339 13.77948
C -24.60536 -44.90842 28.15441
C -12.37741 31.06238 -21.12483
C -7.61467 10.58479 -11.96983
C 4.91354 7.01887 24.65123
C -23.52368 33.04691 24.91253
C -15.86963 -2.62438 23.93184
C 15.14316 -17.20071 16.73052
C -4.11623 41.30076 -22.40254
C -28.60845 23.10380 1.32737
C 23.60995 0.12952 -6.69533
C -26.89922 19.81376 4.25441
C 8.51265 -12.49625 -18.93664
C 8.58259 0.60745 27.27082
C 1.83404 16.90772 -5.17674
C 34.72673 -24.79363 13.72717
C -19.22429 -7.84125 7.21178
C -12.96450 -31.18087 -26.98357
C -22.04775 -32.50518 -31.35705
C -10.09301 19.09819 28.92196
C 34.78462 36.45551 -8.74260
C -27.62192 17.34177 0.96903
C 10.76262 -12.49755 15.61692
C -22.74069 -43.49964 29.15980
C 21.58498 21.84158 29.38006
C -9.04095 20.27120 23.52521
C 30.94769 5.65060 -26.09888
C -12.82708 10.42643 -13.42229
C 32.42974 -25.63800 25.30529
C 9.24935 30.92626 -13.77817
C -12.25749 -3.46940 -6.21882
C 28.52251 32.49845 -10.75863
C 22.68851 28.88401 -9.80380
C -13.21322 -7.06708 0.42239
C 27.56255 43.27964 -6.72177
C 10.17592 -7.64419 24.15372
C -22.08794 -32.72687 29.67649
C 8.71690 28.90454 -15.20775
C -3.43411 -23.57064 14.46452
C 30.48226 21.00123 26.68962
C -12.56993 3.95940 -9.61238
C 22.72513 28.35092 3.54532
C -9.30173 15.30636 26.06532
C 30.78483 3.76461 -24.65439
C 0.02648 1.43024 -21.24722
C -14.44938 -22.29014 7.14534
C -24.05139 -19.53994 -23.79174
C -14.31941 25.48864 5.63382
C 29.79604 -6.82309 -1.50094
C -14.22068 -28.78913 -28.55778
C 12.75959 -0.38731 -24.64817
C 26.72906 -4.43330 -2.65419
C -22.37432 -4.03121 28.86486
C 22.91415 -0.86822 -11.57927
C -18.12498 2.45728 11.73850
C 22.88563 -0.54742 -12.96679
C 11.60583 -15.77177 19.48274
C 12.36184 19.42256 -20.01210
C -6.44198 15.63287 1.72220
C -18.10825 6.75763 -11.22716
C 10.31613 -8.81157 23.70075
C 25.12419 22.89492 28.98264
C -13.36432 -11.71878 -11.54382
C 18.68581 -18.32420 12.64354
C -22.07718 -20.83417 -25.35836
C -21.78865 -21.98600 -25.80291
C 25.19647 9.84498 1.82663
C 5.23071 5.78731 24.99297
C 1.43286 6.71129 15.13303
C 25.12497 -12.21162 -1.75181
C -19.11416 -1.92741 -3.15695
C -20.77302 -1.43658 0.34272
C 2.82536 -27.72605 23.07696
C -13.35771 -28.04355 2.53183
C 28.42314 42.74603 -7.58559
C 27.42903 -35.50560 -25.04254
C -22.84622 -3.78942 2.71022
C 17.06014 -0.09107 -15.15887
C 0.98565 -4.48503 10.17862
C -4.07954 3.40880 18.05010
C 13.36263 -5.16404 -15.65224
C 5.20174 -15.10858 16.91589
C -12.88192 -8.17898 -0.69910
C -0.36382 19.49010 29.89903
C 23.55116 8.01259 8.46641
C -8.52361 11.55595 -12.29666
C 19.97344 -12.72689 -4.74133
C -8.74206 -14.28391 -8.53517
C 29.76993 33.06480 -10.94985
C -23.96466 -18.37249 -1.77987
C 7.27507 30.77127 2.52204
C -18.60161 -27.05767 -29.58942
C -18.18811 7.93538 -11.45080
C 14.70808 24.74660 -1.13859
C 19.67623 10.73381 1.28135
C -8.52179 17.47388 -9.22915
C 14.76823 -13.69656 -8.39463
C -8.28318 -35.14182 -2.15396
C -12.03482 -30.05660 -1.69710
C 2.12924 -28.13028 21.83844
C 34.86707 37.65154 -9.30020
C -6.89716 15.20712 2.96289
C -20.61362 2.66354 11.11873
C -17.47254 -27.60269 -30.11182
C -1.52471 6.04401 -15.42853
C -13.23617 -1.15694 -10.07884
C 12.76705 23.16924 -0.20107
C 27.05304 -6.48213 29.89695
C -18.92877 32.86560 22.74300
C 7.87474 19.59894 7.51113
C 24.30906 -5.91760 -9.78591
C -32.91463 -13.28578 -13.83411
C -20.05791 -3.35168 25.91623
C -10.58372 -31.18878 2.08786
C -11.14021 -29.22947 3.80020
C -31.13062 -6.95637 -15.27076
C -15.38657 25.05787 4.93432
C -0.65571 23.11003 28.58230
C -9.18590 13.94756 -12.75605
C 26.37163 22.37306 28.56065
C -14.17356 -0.06942 -10.22112
C 8.32564 -14.64555 -19.03562
C 2.44563 -28.95533 20.93396
C -21.60287 -33.88783 29.61251
C 10.71251 33.66803 4.51188
C -28.18088 -13.57003 -9.52805
C -26.83790 -31.62457 -34.33439
C -31.05198 15.31077 5.99864
C 16.14136 -12.50610 -4.94299
C 2.68042 2.20914 -5.09098
C -21.24369 32.42760 23.72927
C 25.76029 -13.82977 -0.06287
C -1.72728 2.60818 -25.07223
C -14.86346 -0.01063 -7.47967
C 26.19065 5.69935 -0.31399
C -6.43952 21.06994 -11.10705
C 5.99866 0.83446 -16.43153
C -11.31692 -14.24819 0.50043
C 39.74441 -27.71082 18.77177
C -8.13902 14.58210 25.26367
C 4.67227 -14.64925 17.90662
C -9.76981 15.37338 -10.15060
C -21.63431 -18.08235 -0.79328
C 10.47877 -2.59949 -21.39780
C 15.02370 -8.94822 -12.41191
C 19.66508 27.38248 -7.55286
C -7.35040 -12.61384 -7.05204
C 20.38415 -10.13044 -4.16066
C 9.83735 35.14183 5.84131
C 10.22440 -5.15121 29.60214
C 8.31779 -15.09756 14.93331
C 0.98934 6.14908 16.12195
C -23.41996 -29.30213 28.60680
C 10.92883 -7.96681 -18.50317
C -16.20975 -28.05671 -29.93486
C -31.54524 25.40239 0.92327
C 31.04010 -25.75021 23.35888
C -19.10314 -25.14847 -28.48472
C -12.12110 16.53713 8.25574
C -27.10490 -10.69822 -0.85285
C 29.48887 21.61367 27.22428
C -8.16910 -37.54931 -2.99768
C -30.66415 28.93946 2.00275
C -6.74321 -30.12226 33.36448
C -2.85110 -0.87710 -20.90353
C -19.91789 32.40938 23.16201
C 30.01667 -2.50005 -4.11100
C 12.45875 20.33920 -22.30971
C 0.33665 -3.59418 10.43447
C 27.16440 32.31999 -10.77905
C -15.12618 -1.34136 23.74385
C -31.55652 27.94100 1.49604
C 33.63990 -22.50328 10.84382
C -8.24714 -21.32319 29.36820
C 17.42794 -11.54064 -21.07810
C -26.83258 -11.47297 37.50064
C 18.96351 -1.30428 -12.92135
C -12.36451 -8.34965 -1.92799
C 19.99489 0.41830 -11.61357
C 10.93946 -4.01390 25.05028
C 19.74001 -14.21313 -18.06219
C -20.60008 -18.56547 -3.19915
C -26.82429 18.40329 4.68372
C 7.14879 35.23854 5.37414
C -12.50076 -5.44958 -4.53390
C 21.79630 -14.20684 -11.91259
C -31.76570 16.22268 6.42056
C 16.42618 -17.27875 15.72764
C -21.35039 -35.13670 30.09317
C 6.13355 -9.31751 -16.46484
C -22.75301 -39.70921 30.19591
C 10.15180 -6.49302 24.74114
C -2.63220 6.33260 -15.04913
C 4.70591 8.20764 24.37755
C -13.56605 -26.48289 4.56607
C 10.03616 -4.14595 28.74941
C 17.14247 -18.15878 15.02750
C -1.12087 23.90736 27.56654
C 30.39016 -28.16237 -22.83185
C 24.86465 31.81814 -10.65303
C -31.83497 21.68996 -23.92171
C -21.82353 -19.64566 -9.98310
C 15.46267 25.98580 -1.21864
C -1.27145 0.15305 -0.55104
C -12.47944 13.08536 -13.52005
C -24.28145 -5.87916 31.50486
C -20.46609 -31.89190 -30.22792
C -10.97232 16.86209 5.91929
C -14.29867 -2.29599 15.47211
C 6.48288 25.28098 -17.64454
C -30.24235 -10.34610 -14.16671
C -1.89958 6.29694 20.01754
C -16.42243 -4.36109 -0.02968
C -10.93998 -10.86818 -16.32431
C 29.59053 41.96823 -7.29013
C 14.75825 -10.88231 -10.87096
C -1.34853 2.45254 -26.21278
C 26.12317 7.88320 6.80580
C 8.93321 -11.38799 -18.30378
C 20.44606 2.80770 -10.99860
C 1.89497 -29.59474 19.95838
C -6.20843 8.67474 -13.00983
C -28.00353 -31.78086 -33.47971
C 29.88104 3.65454 -23.72128
C 6.02102 16.57972 7.14074
C -11.93979 24.99183 7.20964
C 33.32510 40.56192 -7.60808
C -7.77524 -23.78461 30.07035
C 22.91610 5.77584 6.17981
C -16.07096 -11.70879 0.02004
C -14.39590 -19.75139 -0.63615
C -23.53749 1.31252 4.88435
C 9.20547 -11.27403 13.75452
C -21.18134 -23.05750 -26.27248
C 14.23177 -7.27601 -14.29097
C -21.61201 -3.30942 28.09672
C -13.33975 -33.50214 -3.35719
C -3.86621 -8.95963 -18.64416
C 19.52565 -12.81621 -17.98038
C 9.92791 -5.50442 -18.88627
C -8.46456 -20.01223 29.28542
C -25.23576 -19.50947 -3.46362
C 11.26091 -12.28675 21.17839
C -21.19080 -19.83242 -7.53309
C 25.57211 8.42952 7.81359
C -5.04046 -2.79382 -20.94216
C -24.44681 0.69742 14.21560
C 6.01473 27.26423 -5.76902
C 24.42250 3.93068 5.43935
C 30.96490 -15.47365 -11.47543
C -15.29621 -28.49503 -29.06890
C -0.10258 20.66079 29.46368
C 16.14369 -17.12130 -7.64367
C -11.76037 34.98210 -24.36412
C -7.69168 18.43895 -9.20763
C -21.84984 -37.42252 30.97157
C -0.03102 18.28480 30.52346
C 34.53453 38.82378 -9.70650
C -16.73954 24.78477 12.39540
C 22.48847 6.31581 7.23220
C -11.86823 -2.54685 -8.46698
C -22.07056 8.48339 -11.21154
C -6.40276 19.03868 -9.85216
C 30.93535 -21.33920 8.60967
C -15.18783 0.37364 12.90354
C -20.40516 -19.46805 -5.18724
C 9.49075 -18.61279 19.82535
C -24.01010 26.68789 9.49708
C -0.06259 21.98938 28.74487
C -26.40994 -10.41760 0.52831
C -21.35486 -4.70536 1.28323
C -16.52783 -13.75801 1.39524
C 28.30586 21.34330 27.53996
C -23.76631 -2.83596 2.68623
C -23.21013 -4.54272 29.65867
C -19.88814 18.68741 -10.00604
C 27.82157 -34.50721 -24.16758
C 19.00565 -14.34873 4.44304
C 0.72020 14.59870 31.16487
C 14.77750 -1.05724 -16.06256
C -14.68760 -0.83037 13.56706
C 17.31898 -1.41837 -14.96843
C -23.63245 2.14438 12.39333
C -32.23507 23.89861 -22.84424
C 8.62317 -13.69150 -19.62297
C 12.82377 -2.86623 -16.35795
C -32.00658 26.72817 1.29424
C -14.88453 26.08687 9.69693
C 7.09389 0.12971 -16.34544
C -23.18810 -25.28278 25.68067
C -23.86198 -21.37518 -4.43420
C 0.15787 0.16219 -1.30421
C 25.62306 8.44009 1.90065
C -23.07621 -23.98407 25.52756
C 19.39724 21.65509 26.33920
C -28.47841 19.16463 -27.10129
C -14.05694 -25.28336 5.00025
C 17.67433 -6.87871 -20.86820
C -4.21949 -7.12393 -20.40861
C -14.27935 -8.09607 -12.55206
C -13.05752 25.43305 8.21270
C 29.36781 -5.64891 -1.28476
C 27.53614 6.39560 -6.54513
C 29.79768 -19.37341 8.02270
C -4.86525 -9.52202 -15.57613
C 25.42951 8.07572 4.29531
C 28.55931 3.94721 -21.79030
C 14.76577 -7.43573 -18.75598
C 31.92639 5.89252 -25.54952
C 12.69218 -17.07042 19.33352
C -15.42715 -19.15399 6.73326
C 13.97539 23.76259 -0.77384
C -16.89602 -7.29999 6.56635
C 0.38047 5.95987 17.22057
C -14.77815 -20.06804 7.28671
C 14.85989 21.50282 28.17061
C 17.38639 -12.85348 -20.86315
C 34.33838 -23.63442 12.94639
C 8.50429 -2.85087 5.26641
C 21.83072 -8.37493 -2.79855
C -26.08642 6.80755 6.28774
C 20.46985 -15.44196 -7.16140
C -12.66379 -2.06911 -9.59669
C 8.44906 31.98415 -12.01844
C -15.92038 -10.86377 -0.89259
C -16.75334 -15.09594 1.72142
C -4.34590 6.67810 -13.34341
C -13.68350 -16.80821 1.92295
C -8.97957 18.99959 25.66874
C 11.04025 -9.84860 23.46927
C -1.16145 25.00421 26.87132
C -11.52798 13.62980 -13.08263
C -14.70704 -0.20840 24.12254
C 33.13288 21.09431 24.71165
C 19.10223 -7.13644 -18.74152
C 8.89873 29.75402 -14.31982
C -13.93294 -4.74535 0.05913
C 20.13802 -15.89318 7.63027
C 20.77606 -14.37155 -14.30070
C 31.26894 -4.90903 28.48558
C -8.39507 15.73658 -14.34516
C -8.85770 16.44450 -9.98913
C -24.72016 -3.55386 2.09875
C 8.70102 27.72965 -15.60200
C 36.86761 -25.22139 15.64947
C 15.11062 21.96578 27.02048
C -12.43030 31.85898 -22.23342
C -23.16093 25.73000 9.69868
C -25.90777 -10.91109 36.58179
C -27.85126 8.76874 5.86815
C -21.99719 3.24597 11.35650
C 29.11637 -5.28318 29.74793
C -3.45926 4.90664 19.72853
C -30.95196 20.92928 -24.50692
C -7.20474 -25.09901 30.13394
C -16.09702 -16.72051 3.89050
C -10.69903 -12.90437 -1.82998
C 27.40857 -9.78546 -10.80057
C 24.74764 -6.43300 -2.44495
C -23.24300 -27.61715 26.84565
C 9.10026 -15.50561 -18.72836
C -7.46766 -26.29951 30.62179
C -26.94531 21.94355 2.86611
C -16.34354 -18.20824 6.26933
C -8.86794 -9.53596 -0.97491
C -30.24533 14.21249 6.06689
C -2.30193 4.71049 11.48977
C -6.42493 -33.21764 35.20860
C 28.60895 -33.58427 -23.82324
C -7.95285 -22.67512 29.79311
C 29.68539 -13.33874 -10.87965
C -13.87337 -3.76978 17.44737
C -22.74581 -0.08180 3.14219
C 16.75004 -10.37346 -21.70966
C -12.90784 -29.11966 -28.24864
C -9.09988 12.59116 -12.55653
C 24.08562 5.10603 5.96234
C 20.41669 -13.86581 -15.59266
C 17.00129 -13.39767 16.05940
C -16.38930 -12.46462 1.09907
C 31.59610 4.65526 -25.39310
C -28.05914 -12.80876 -8.35004
C -25.09146 -18.67800 -2.35672
C 33.66856 -4.76746 29.55553
C -20.50369 -3.19637 27.21118
C -20.08500 -1.77365 -0.66176
C -13.16480 -30.15052 -27.69104
C 7.32356 -19.91545 19.17776
C 6.05110 -15.76853 16.24537
C -0.35338 2.34066 -25.21063
C -25.49952 -45.38039 27.13320
C -3.31004 5.93634 20.47193
C 0.36187 15.78825 30.40107
C 14.62809 -12.58927 -8.79971
C 5.13659 1.44631 -15.78862
C -19.23765 2.49053 11.18103
C -14.52541 -17.63852 0.99276
C 5.56565 24.23305 -17.61576
C -17.59110 5.84345 -11.98130
C -22.45237 32.95246 24.06842
C 6.62808 24.39235 -0.91813
C 8.64106 22.91538 0.24951
C -9.22835 17.89567 26.89667
C -13.13343 -5.68132 0.45908
C 35.80686 -3.17874 29.67098
C -24.40824 -7.88890 35.02113
C 19.90920 -11.27429 -4.55685
C -26.89001 7.83997 6.01944
C 19.26558 -17.69549 11.77162
C 0.69648 15.08201 -4.07554
C -2.90088 7.07098 11.51797
C 37.04334 -3.23526 30.41456
C -12.21995 -11.26885 -16.96631
C 19.57893 -13.64697 -16.66916
C -14.07600 -20.90204 6.69833
C -27.41293 17.18795 4.80189
C 37.42339 -26.21926 16.20266
C -11.44105 36.46925 -24.40476
C 8.43823 -19.05449 19.34868
C -21.11865 19.67199 -6.90477
C 22.05844 -15.06683 -10.63825
C 9.38833 -2.08195 5.09197
C -4.94446 -5.95111 -17.25885
C -11.30966 -28.22959 4.56289
C -22.12106 9.49176 -10.44463
C 8.21628 -3.05661 -18.11968
C 19.03715 -14.71303 5.69508
C -16.04575 -16.14942 2.47167
C 34.34149 -25.19961 26.76825
C 4.01504 -27.42301 23.55905
C -28.89690 -13.33006 -12.02940
C -7.78444 -10.80504 -13.96848
C 6.93281 18.79132 7.16874
C -18.36968 33.23586 21.67147
C -3.42730 6.43028 -14.05820
C 1.22854 2.60112 -22.99838
C -11.33954 -27.22024 5.46930
C -4.40326 -5.00335 -22.07460
C -24.33953 4.91604 5.30854
C -8.42080 -12.44368 -4.84660
C -16.91073 2.14120 12.07427
C 16.81868 -13.47091 -5.24254
C -18.05141 -3.30715 24.29601
C 9.42839 -10.10458 -18.66192
C 21.81613 -15.27822 -9.24737
C 29.24311 -4.17570 -1.66060
C -10.96169 -30.23259 2.96931
C -9.03447 -33.02363 -0.66481
C -12.49123 11.76643 -13.64243
C 13.73607 -6.12191 -14.88390
C 32.07657 40.92628 -7.83276
C -29.69227 23.62463 1.29943
C -16.03337 1.25541 12.53684
C 27.56842 5.36928 -7.13838
C 34.84237 39.35850 -8.30038
C 26.85805 4.35585 -3.37443
C 24.99462 8.14126 9.07567
C -30.66953 -5.07932 -15.77261
C 17.65236 -13.13202 2.84589
C 11.38102 -13.58170 15.77529
C 11.59169 -14.59584 20.20979
C 16.90613 -0.36598 -24.96709
C -22.67347 -41.23087 30.39867
C 28.46837 -10.48081 -10.48508
C -31.66122 -13.05573 -13.31404
C -31.96263 24.94889 -22.14403
C -10.58715 14.23116 -12.49424
C 7.39577 -6.33790 -17.61310
C -27.25023 17.18302 2.12922
C 32.17982 37.23214 -6.16281
C 33.68788 -23.34389 11.76183
C -2.89038 -24.16175 13.31075
C -26.55547 -31.65258 -33.09272
C 27.75296 -5.41983 30.16959
C -28.75345 18.51019 0.41189
C -13.69822 2.22230 -8.19984
C -14.08851 1.10736 -7.56958
C 1.64982 1.76219 -4.35188
C -7.71982 16.02685 3.58499
C 33.56365 39.01429 -7.53477
C 19.16666 -8.37817 -18.46214
C -28.83792 17.24992 -0.24139
C 11.63720 -0.08316 -24.00228
C -17.41116 23.55406 12.46074
C 23.95844 22.64011 29.69561
C -4.11079 -8.18487 -19.59523
C 10.83775 -0.34135 6.57510
C -14.57273 -24.40989 5.83742
C -23.06733 -33.11399 -31.57550
C 8.63270 -10.31279 11.34567
C -17.88092 22.38356 12.83781
C 13.66587 -17.17199 18.38578
C 23.03719 29.63286 3.25459
C 7.60871 32.30878 -11.17206
C -3.92164 -1.74896 -21.09197
C -23.42567 -26.42131 25.96187
C -30.87799 -9.43244 -14.91476
C -29.55575 31.51990 25.32972
C 30.09440 -4.84155 28.97052
C 10.04861 22.69702 0.15869
C -7.90300 -12.70459 -5.86385
C 21.44062 -15.42932 -8.07590
C 32.44568 -5.12625 29.30124
C -14.43713 0.76795 -11.09907
C 22.61701 23.78678 5.80910
C -7.57974 -11.57014 -1.78960
C 30.25233 -14.27471 -11.62134
C -22.43525 -38.58051 30.57784
C -12.35277 -7.25325 -2.78656
C 4.93046 34.66824 6.07545
C -17.42652 26.20750 7.85073
C 20.55392 -16.52332 8.48022
C 11.53523 22.87632 0.02873
C 16.77920 -6.28760 -17.91387
C 11.72251 -13.31910 20.23990
C -3.08543 3.97820 18.72688
C 18.96034 26.99227 -6.57638
C -24.91294 6.03863 5.77792
C 9.06344 32.11425 -13.18278
C 4.23226 34.36701 5.11142
C -2.08251 2.07275 11.58558
C -20.02783 19.86088 -7.73436
C 14.24207 -11.07548 -4.01889
C 24.69773 8.32931 10.44556
C 10.14778 32.76960 3.78950
C -28.54051 -13.70602 -10.64830
C -32.57229 17.58719 6.52817
C -28.21660 -11.71677 -3.54472
C -17.19725 -1.25845 -4.79844
C 8.24669 26.69493 -16.24257
C 28.74472 -13.03525 -10.21309
C -12.64182 7.36670 -11.51653
C 10.00563 19.85446 6.00071
C 14.92802 20.65152 29.46906
C 10.11589 -5.77732 28.57919
C 23.82237 10.31714 1.72693
C -29.58291 11.81582 6.36125
C 27.78880 43.92235 -7.99222
C 25.82077 -5.42631 -2.64525
C -10.04226 -32.36886 1.48832
C 26.29572 -9.02147 -10.31589
C -18.99897 8.91147 -11.52405
C -14.92815 -7.37110 -13.39604
C 30.66244 41.31437 -7.11239
C 14.73673 -16.29352 17.65466
C 33.93363 35.61691 -9.35426
C -5.80394 16.63411 -0.16639
C -9.25441 -32.39382 0.49175
C 20.67028 21.59506 28.41013
C -12.58587 -11.29873 -19.22846
C -2.64010 -23.50510 12.12529
C -24.06468 3.62148 5.18415
C -8.94437 -10.98091 -14.68412
C 11.90096 0.44066 7.42569
C 9.01904 19.82821 6.68238
C -19.07540 -25.85535 -29.58436
C 11.17683 -1.34058 -23.42323
C 33.44897 -25.09719 25.98624
C 9.99098 -11.97184 14.67513
C 5.64337 25.16315 -1.24743
C -2.76573 5.88656 10.82204
C -16.01243 34.49659 19.28244
C -21.43246 -1.05070 1.41112
C -32.90187 25.77999 -22.02813
C 7.47427 -2.13400 -17.33826
C 31.26575 -16.67383 -12.04528
C -8.27670 17.21653 -17.73198
C -10.01283 16.40697 5.10798
C 32.94769 38.08105 -6.88551
C -23.02993 0.39017 4.20268
C -23.10577 3.16799 11.82464
C -20.18321 -4.75469 0.78144
C 26.31971 4.16586 -2.29456
C 22.30742 24.89384 5.35807
