1000
C1000 500 K last frame of liquid_carbon.lammpstrj
C 2.79619 -0.96921 5.49672
C 1.99104 1.37131 5.36422
C -6.32174 0.93156 10.93872
C 8.33432 -2.24530 3.79728
C 2.64587 2.37204 6.09820
C 6.94188 -3.35239 -2.08188
C 3.47494 -5.63115 3.78834
C -5.18320 5.06072 0.39380
C -1.78971 2.15773 11.14298
C 1.19736 -5.33595 -7.09398
C -0.54759 -0.23945 1.35900
C 1.93581 -0.51202 -2.70216
C 2.91086 2.80044 11.09961
C 2.64645 -5.04931 -7.44454
C -3.29844 -2.32250 11.05644
C -6.78469 -4.42669 5.40351
C -0.17655 -2.33761 -7.60264
C -0.75573 -5.76967 -5.36006
C -3.76211 -0.02443 0.12641
C -1.65831 1.57285 8.08390
C -0.63315 -4.70821 10.71716
C -1.19030 4.57942 4.67990
C 0.49300 2.85904 -1.87432
C -1.65792 2.85425 -3.84854
C -3.94692 -6.83891 -0.37453
C -1.30451 -2.84672 -0.34776
C 0.75527 -0.34433 10.53540
C 6.53208 2.68597 -9.23855
C 0.19391 -4.44380 -10.90713
C 5.16770 7.59286 0.41487
C 1.97016 1.36230 -4.15573
C -0.31008 3.64968 -6.92246
C 2.02248 -0.29234 -0.28190
C -6.94662 -6.72567 -5.45003
C -8.63692 -4.18931 -6.59777
C 0.65000 -2.42466 5.47928
C -0.61753 2.92931 -10.92217
C -0.35740 7.46756 2.81309
C -2.25046 7.70462 4.57884
C -4.16712 2.40685 2.79539
C 4.66922 -2.47697 4.06467
C -4.40534 -2.41410 0.08169
C 3.36747 0.33740 3.44504
C 0.59270 0.59689 -10.72071
C -1.61780 -0.44325 -5.54642
C -2.89071 -5.10291 9.87026
C 4.93927 -2.04649 -6.91948
C 0.04249 -3.69854 11.55609
C 2.04776 0.75363 -10.45720
C -3.91146 3.34981 10.22497
C -6.18645 3.52321 -3.50842
C 0.11904 4.12994 -10.51665
C 4.43910 4.96595 4.11971
C 2.54877 0.89053 -6.41841
C 6.66503 8.01524 1.92276
C 7.02213 4.48796 -7.69144
C 9.61961 0.73022 -3.77250
C -0.13746 -0.57989 -1.42218
C 5.27220 -0.21760 -4.30009
C -1.30996 1.15079 3.30587
C 1.42767 4.73635 -8.59208
C -6.64176 -1.27083 -4.38390
C -8.14609 -0.97816 0.19817
C -1.56147 3.96847 2.38572
C 4.83795 -3.04112 7.62826
C -9.43766 -3.53506 2.71164
C -0.30470 5.98489 2.71262
C -6.54174 -2.77444 -3.96599
C 1.60794 -4.15547 -10.81496
C -6.04047 5.02591 1.52054
C -2.56504 3.68144 -1.81753
C 0.57286 -6.69734 -9.79978
C 5.04163 0.31984 -7.69870
C -8.14226 6.50094 -0.15971
C 2.59401 11.09422 -1.61885
C -1.65747 -0.21533 6.41428
C -0.53112 -1.67234 -3.73348
C -4.65976 8.07106 1.04176
C 1.57307 2.79247 -4.27954
C -3.12634 -2.13886 -3.64662
C 2.53600 3.04994 1.11916
C 1.11004 10.62563 2.77465
C -0.17039 0.89682 -2.89105
C 0.21005 6.93758 -5.89153
C -2.19387 0.05394 -3.15993
C 6.22015 3.43674 9.35901
C 3.98127 3.06511 8.40146
C 4.31640 2.36419 -0.57068
C -0.99499 5.75069 -1.60544
C 8.68527 -6.48524 0.35310
C -6.60332 -0.83471 4.87624
C -1.86237 2.09745 -7.70642
C 2.69714 -1.52934 0.16116
C 1.10745 -5.94670 1.71112
C 3.64640 -6.80864 -0.98412
C 8.44698 -3.36899 5.94276
C -3.92099 -1.97065 9.83137
C -0.95467 -1.30888 -10.80796
C -4.93824 1.37280 -6.48491
C -6.38610 -5.05456 -6.86937
C -3.67577 -2.73516 4.21506
C 12.00591 4.36538 2.78496
C 3.62222 -2.56416 -10.80634
C 0.72480 -2.43542 0.98317
C 3.87768 1.08532 -0.06352
C 0.35558 5.22991 11.24416
C 9.42755 -3.26190 -3.54874
C -3.81863 3.60975 6.36566
C 3.39981 -2.19493 10.83300
C -0.50390 0.45655 5.69618
C 7.39376 2.29762 -5.97723
C 1.95376 -5.56496 8.22112
C -10.63071 2.91712 -1.87568
C 2.04510 -10.95180 -1.11026
C -4.65536 -0.73022 -10.23927
C 0.55108 0.98666 8.77840
C -7.86333 5.61048 5.38451
C -0.20734 -2.12901 4.33109
C -0.11477 7.39036 5.19258
C -4.15752 1.16486 -2.36398
C 0.54026 2.71857 -7.60854
C -0.96368 -7.13696 2.13330
C -1.08315 1.00267 -7.46022
C -4.52182 3.31273 -10.10068
C 3.20159 -3.66328 -1.12835
C 2.56147 7.87983 7.87290
C 4.91101 -0.62702 1.62484
C -2.90562 -4.57371 -6.06590
C -5.71118 8.40184 -5.18614
C 3.11032 -2.56947 9.38034
C -3.59830 -4.34806 -8.59448
C 1.22588 3.34508 -0.77682
C 7.22742 -3.51017 -8.18098
C -12.25554 0.88729 3.33919
C 4.55481 4.50397 -5.73888
C -0.76811 8.08558 1.68065
C -3.44176 -0.34686 8.02257
C 0.35850 -3.86002 -3.57745
C -2.84676 6.12063 2.95311
C -2.07602 -0.39366 -10.76764
C -5.63391 -1.00286 -2.32366
C -4.82461 -6.82705 -3.19863
C 4.72128 7.54613 -4.74042
C -1.21039 10.18886 -2.87822
C 8.52114 -0.63700 10.09681
C -2.77092 4.16119 0.49959
C -5.80848 1.00928 3.37302
C 2.05191 -1.07572 -5.00036
C 4.23096 5.52005 -0.98561
C 4.49608 -7.69508 -5.01592
C -5.27648 -5.53800 1.54550
C -0.13817 -9.55716 6.43696
C 9.53489 4.83287 0.31407
C -0.07173 -2.41837 2.94306
C 7.29464 4.57702 5.18998
C -1.12956 -3.57415 6.47288
C -4.23991 8.35264 -1.37007
C 5.64810 -8.77702 0.06470
C 6.54439 -3.23176 0.00902
C 0.38838 -0.83821 -10.71053
C 7.98681 -0.12478 6.54386
C 4.49531 -4.73200 -2.95730
C 7.03510 -2.75675 3.40044
C -8.34716 -7.91496 -0.38795
C 3.40111 -10.07593 -3.81204
C -5.51354 3.37438 4.98638
C -4.40651 -8.99813 6.07526
C -7.76403 -2.35329 7.90570
C -4.27673 -4.16883 -12.15865
C 1.56049 -8.69574 -6.38904
C -6.87843 8.08156 -3.25185
C -0.92323 -5.74258 8.56176
C -6.70425 -1.36003 0.05621
C 3.45770 7.30687 -4.17492
C -1.20935 -1.12427 4.47221
C 4.51676 4.72294 0.23830
C 0.72532 0.98206 6.19790
C -0.61818 11.04503 4.27100
C -2.56686 -2.51295 -7.48803
C -8.53042 5.95604 3.26056
C 1.18096 4.52575 3.24655
C -8.97529 -2.91744 -3.34293
C 8.98079 3.56528 0.02795
C 4.72601 5.62312 -8.91340
C -4.86532 5.24735 -8.85409
C 2.32331 -5.85977 10.62557
C 0.68086 -4.10251 -0.96389
C -6.85989 2.65732 1.84070
C -6.70289 4.75956 -3.40522
C -7.56755 -3.25613 -3.00643
C -2.22615 -9.06308 7.76355
C -1.29220 -5.79631 -3.91602
C 0.76655 4.99292 -3.26682
C -10.94841 1.64687 -2.10495
C 9.10862 1.34765 -7.82057
C 4.20931 -1.27031 -1.66267
C -2.19614 -2.86558 5.89013
C -2.51604 -10.89956 2.95486
C -7.14478 0.46595 6.80820
C 6.23856 0.26286 5.00012
C 5.13977 3.21945 -5.36602
C -8.45827 -0.50340 -7.43883
C 7.77504 2.79766 -1.96734
C -0.78840 -4.56774 -3.14457
C -7.80441 0.08505 8.09083
C 2.56588 7.51767 3.61786
C 10.51092 -2.69782 4.82879
C -8.58000 -5.87280 2.88563
C -5.83447 -2.15163 0.80828
C -2.79762 -1.07980 -7.53866
C -9.27697 3.80039 4.07355
C -4.28905 6.11862 6.40403
C 5.59281 4.62428 1.06147
C -1.17895 5.04834 9.58524
C -9.81363 -1.62962 -1.34265
C -2.91832 10.43978 -4.54071
C -2.55999 -1.08674 11.42962
C 5.00999 -7.08919 7.12161
C -2.52025 -7.68626 -7.64341
C -4.86441 -1.05089 2.63950
C 6.08215 -2.00300 4.19004
C -0.53799 7.54827 0.27894
C 6.56579 -7.83814 -0.48220
C -0.31423 6.12575 9.28589
C 5.89708 0.81689 -3.48048
C -7.79352 1.24102 4.73461
C 0.21038 -9.30312 2.16597
C -4.85611 -9.16641 3.31287
C -1.71114 1.76815 0.85359
C 3.68412 0.31472 8.55950
C -9.40422 -1.20666 3.10771
C 3.79944 5.56601 8.20790
C 9.20715 1.18346 0.82798
C -9.47228 0.71525 -5.81465
C -5.47412 -8.04810 5.41440
C -1.85563 7.73683 -7.73863
C -1.56672 10.27974 0.69795
C 2.90555 -3.55820 5.25986
C -4.45603 3.28181 7.60966
C -1.15562 -4.48043 -7.61897
C -0.48536 11.17538 0.47554
C -2.78829 9.65991 0.15468
C 0.31882 -3.54167 2.20499
C -10.18921 1.74002 4.53580
C 0.06855 -2.16148 -6.12282
C 5.20109 -9.71526 -0.78764
C -2.79529 1.29852 -2.64272
C 2.80818 -2.74404 2.41988
C 4.92728 9.75046 -0.88948
C -3.93966 4.84350 1.16920
C 5.17477 -0.92364 -0.68289
C 5.41072 -7.73034 -3.96645
C 3.43605 -0.50658 -2.70871
C 6.29638 -2.04351 5.76256
C -2.96901 4.21330 -7.32462
C -1.17117 -7.22188 5.28326
C -0.24448 4.95202 -4.45047
C -10.36890 -1.77754 0.04914
C 3.22447 -5.58629 -5.01520
C -3.63720 -6.12140 -2.69030
C -0.53333 -0.25436 11.07459
C 1.65001 -1.51793 -10.78773
C 3.18240 6.59130 -0.78900
C 8.57592 2.57460 8.15241
C -0.29796 -7.54391 -9.02321
C 4.10858 -0.60128 2.75669
C 1.85005 -10.51814 4.71121
C -8.43046 -6.16982 -3.68233
C -0.25718 -9.36859 5.05956
C 1.16715 -9.89391 -2.92178
C -3.41557 -0.73942 9.34190
C -8.89413 5.65183 -2.88729
C 6.53188 -2.71934 -9.29209
C -5.00112 -2.98563 -10.19267
C -0.35532 6.14085 -9.07740
C 8.13668 -6.82433 2.60884
C -1.11108 -11.48898 6.79115
C 1.74958 -8.69515 -4.99919
C -1.19678 -1.33572 11.64930
C -6.50389 -4.84687 1.48910
C -2.89525 -9.12966 -0.53594
C -8.39273 1.89585 -3.92982
C -5.85780 -6.33207 -6.41769
C 4.32819 -6.41504 5.99190
C -3.34453 -5.65202 7.53550
C 4.61276 -6.70453 1.85437
C 6.92432 2.36439 0.46381
C -9.03856 0.66994 -7.14221
C 4.60343 2.23656 -6.26543
C 8.16812 8.23473 -0.14558
C 8.24999 5.08354 -5.32855
C -1.57573 10.53993 -4.30871
C 7.24564 -0.18176 1.02044
C -0.38022 -8.24257 2.82495
C 6.56948 -0.06903 11.18420
C 8.70763 2.91524 -6.37543
C 9.60516 -1.16705 0.93098
C 1.53041 -3.64669 11.62992
C 9.79509 4.41160 -2.13678
C -1.27534 7.02891 -5.44128
C 11.77708 5.67452 2.85179
C 6.00501 -4.95564 8.34908
C 3.59558 -6.44434 -7.31049
C 2.17759 3.00262 -9.47411
C 0.58485 -7.45271 -3.07638
C -4.62496 6.24722 8.86526
C 2.97419 10.43622 0.55502
C -1.67037 -7.36540 -8.77099
C -2.85609 -2.46051 -10.29995
C 8.83605 -4.04268 -4.55406
C -2.58650 6.32462 -9.72621
C -9.92052 -0.37402 -5.06751
C 0.41269 5.38684 7.29378
C 0.05960 7.89526 7.52273
C -0.60106 -6.04257 7.19603
C 1.86321 -10.22761 0.27343
C -1.43772 3.51076 3.67406
C -3.95359 3.10290 -5.01793
C 0.63036 6.24917 5.01542
C -2.02144 8.23843 5.96668
C 3.98107 -4.39869 -5.78859
C 5.82228 5.48531 3.51790
C 7.31357 7.95937 -3.35634
C 2.44712 1.74300 7.40268
C -5.07080 0.41156 -0.37849
C 9.74621 -3.66568 1.60351
C -4.75628 2.89878 -0.69009
C -2.35858 4.94365 -5.18536
C -5.90577 -3.89411 -4.75838
C -1.82503 10.75916 3.88641
C -5.03236 0.82499 11.01255
C -2.26881 -9.03936 -3.05012
C 3.87489 0.22228 10.70368
C -1.96207 -1.59053 -0.16127
C 6.03807 6.90562 1.32795
C 0.25128 7.90667 -3.80699
C -9.79282 -0.87068 7.59520
C -3.24464 -6.16372 2.62271
C 9.36960 -0.18539 4.20119
C -0.68281 -6.30231 -1.43476
C -3.07046 -8.54438 -5.47654
C 2.39818 3.61260 3.31741
C -6.17653 -6.68684 -2.93785
C 3.99170 -7.34420 9.61395
C 8.33938 0.05757 -3.99030
C -8.63193 2.89035 -6.29408
C 3.26848 -2.25379 -0.91087
C 1.96148 5.93206 1.42389
C -9.48609 -1.69859 -5.60956
C -0.50396 1.49085 -10.79007
C -6.79260 0.85462 -8.65995
C -6.75637 -1.71901 -8.90932
C 4.82071 -6.19335 -7.96577
C 8.02175 -2.97494 -0.08672
C -8.08314 -7.06365 -1.43418
C 2.80060 -4.25789 6.50107
C -6.66614 -2.12454 6.95022
C 4.07474 -10.42998 -0.36565
C -2.32105 -5.50047 8.56520
C 6.91770 4.47480 3.86787
C -4.57355 7.80075 -2.67746
C 6.79584 -5.33549 -1.49109
C -2.84054 9.02303 -1.14157
C 1.36421 4.81057 -0.88935
C -3.26350 -4.39019 -0.99391
C 2.12243 -2.77969 -10.52462
C 0.63535 5.71743 -8.13995
C 8.25245 -5.52873 7.44501
C 8.10868 -0.82868 3.78665
C -6.55801 -2.73036 3.11121
C 9.63796 -6.53075 -2.18559
C 9.33543 -0.56479 6.89085
C -3.31529 -11.24000 5.49529
C -2.30018 -6.33751 -9.47930
C 6.87149 2.22560 9.81957
C -10.58106 -1.33449 5.37466
C -5.90487 1.68602 -4.35642
C -6.24538 -5.89031 -0.54274
C -0.18594 -5.78024 -10.54044
C 2.23581 11.15023 -3.00799
C 2.54235 7.45440 -1.81818
C 2.89667 0.35011 9.76441
C -2.01153 -11.39596 0.01797
C -1.71911 -0.14766 -6.93556
C -4.43846 -10.22443 4.03738
C -8.89750 4.26153 1.55807
C 6.36950 -4.15826 9.41592
C 4.90893 -5.74835 0.83803
C -6.63301 3.33814 -8.40215
C 3.02968 6.96318 -7.48000
C 6.28763 -8.49874 5.14189
C -1.79405 0.50413 -4.59218
C 4.07947 -0.80923 7.83219
C -9.35041 -4.15126 -1.19168
C 1.01897 -3.07781 7.91828
C 4.86712 8.94064 -4.54589
C 2.26096 -4.78386 11.52309
C 9.84908 3.29594 -4.33431
C 11.39165 0.64012 -1.78921
C 0.14588 11.34411 -0.88475
C -6.28835 2.73459 6.09801
C 6.67695 -2.22203 11.05112
C -4.33753 4.53955 10.42507
C 4.74669 3.58116 9.64740
C 2.52167 0.98374 -0.00453
C -1.06577 9.80770 -6.59064
C 7.42267 -7.34692 0.52403
C -9.60205 3.04677 6.51144
C 2.83606 9.32335 1.48651
C 6.46259 3.43628 1.42771
C 0.68027 2.86028 11.54397
C 2.25532 -8.05964 1.16253
C 2.00984 -2.75668 -8.86933
C -2.66921 4.43247 -11.32750
C 6.88387 -0.47138 -6.39001
C -0.54162 -9.29391 -1.32093
C 9.84221 7.02684 1.57700
C -8.91345 0.88463 -3.02640
C -1.31216 6.39580 -0.22959
C 1.26970 -5.98598 9.49034
C 5.40631 9.33573 -2.19344
C 7.05830 -7.46918 5.72211
C -1.38068 4.09345 8.41987
C -5.78436 7.19894 4.42910
C -7.18581 -2.87667 9.18691
C 0.72150 11.17979 1.47847
C -5.97027 -3.87123 -6.14388
C 1.63115 9.53720 4.96492
C 2.90172 3.80065 6.33539
C 2.44045 9.24297 -6.76708
C 4.19278 1.58406 -9.58049
C -3.25254 -8.61231 -3.99847
C 2.47675 6.05516 -6.30879
C -11.85021 -0.94938 -3.73652
C 9.43889 5.69980 -1.84469
C 10.40124 4.76377 1.35641
C -7.99894 4.14537 -6.24617
C -8.63478 2.83545 -0.47812
C 8.16047 -5.04548 -1.56570
C 11.16452 2.45760 0.99276
C -2.83554 -5.66473 -3.95154
C -8.43403 -6.59375 -7.40150
C -3.43022 2.45183 4.07018
C -5.08480 2.87194 -4.12662
C -8.87131 4.71788 -1.78072
C -5.65349 -3.53059 -1.76224
C 3.21475 4.70511 -6.23619
C -4.96663 -5.28895 4.07323
C -12.26390 -3.35927 -3.33288
C -0.70186 7.99826 6.26959
C -5.83525 7.10125 -3.12214
C -5.85262 -8.28723 4.07537
C 4.98231 6.96091 6.34764
C 1.41607 10.82463 -4.09557
C -3.13055 -4.76785 -12.38235
C -1.81285 -5.96200 5.43987
C 6.58893 3.32544 2.86592
C -1.07550 1.19565 -0.40642
C 8.59478 -6.48544 3.95072
C -6.86488 5.83476 6.10670
C 3.73864 -2.60733 -7.45815
C -3.82350 7.71324 -6.41231
C 0.47641 8.32996 -0.45472
C 4.47729 2.50933 3.55764
C -8.13630 6.71524 1.28686
C 5.75182 -8.53770 -2.74728
C 9.18725 1.62645 7.28885
C -4.66735 -5.50753 7.98770
C -7.42760 0.46575 10.30988
C 3.45699 5.58928 4.78945
C -3.89026 1.27272 2.00016
C 5.19305 1.98019 -2.96540
C -3.91509 5.66545 -9.67863
C 6.65129 -2.63391 2.07282
C -5.48404 5.23062 2.83079
C 0.00975 -10.48437 2.94708
C 8.22886 -5.30535 -4.24979
C -5.79292 -0.69210 -5.42313
C 7.09966 -1.90771 -4.06530
C 2.14499 6.23990 9.81199
C 4.84204 -4.45359 7.70372
C -0.68365 1.88075 -1.75394
C -8.29485 -2.95290 -7.36526
C -4.11474 9.51873 6.26298
C 4.99813 -0.71051 -9.79524
C 8.85024 0.41571 9.27980
C -5.73127 5.70771 -2.87770
C 2.14868 -5.43007 -2.68012
C -0.87883 4.58363 10.95525
C 5.32892 -9.40119 5.21073
C -6.05033 7.27854 -5.98980
C -5.44521 6.01529 -7.78349
C -8.83709 6.98697 -2.43658
C 3.75977 -4.88945 -10.15131
C 10.25837 -1.86901 -1.61710
C 9.54014 -1.85261 -3.75254
C 2.08477 8.85268 3.79048
C -1.30866 9.36354 1.78508
C -7.89172 -4.18601 -0.74330
C -1.56976 -5.96459 -10.66548
C 5.47328 6.23925 -7.25137
C -8.19399 3.95564 0.33566
C 8.40906 7.63753 -2.59326
C 6.66931 4.15542 8.19170
C 6.59074 -6.01237 -6.18641
C -2.73954 2.04423 -11.10030
C -9.24832 -4.20526 -5.34482
C -7.68663 -0.89538 10.80499
C -8.45658 1.54348 -0.31055
C -4.57880 -4.16799 -4.24998
C -5.33054 10.02401 -3.67203
C 5.75596 -3.63528 -10.02458
C -9.77830 -5.35708 -1.99852
C 11.85118 1.95238 -2.07157
C -4.28043 -7.65424 -5.55186
C 10.72250 -5.05799 4.41841
C 5.41662 2.37586 -1.51553
C -4.16239 -0.71265 -7.20262
C 3.96227 -1.11474 6.41901
C 1.47084 9.11508 -5.72377
C 4.35471 -1.17561 11.05352
C 0.43285 5.50469 -1.98964
C 1.79385 -1.72277 -3.74294
C 3.22888 8.03216 -2.95672
C 1.78529 -0.97440 -7.34231
C 6.10056 6.68121 5.54184
C 1.58739 3.70711 -5.40193
C 8.98792 0.19136 -7.35119
C -1.35987 0.92981 10.46837
C -3.69385 -6.93362 -7.70713
C 4.88158 -3.53869 -5.06648
C 5.63656 8.93552 0.17834
C 11.22493 3.60514 1.75150
C 2.61864 2.50777 2.41936
C -0.49722 -8.67123 -4.81776
C -5.74826 -6.88325 6.10780
C -5.20874 9.43828 5.48343
C 6.25185 6.94076 4.15270
C -0.95363 -11.59698 -0.62170
C 5.71357 -4.92848 1.54329
C 2.16359 -3.97579 2.94027
C -3.36008 5.96194 -2.40949
C 2.08276 -2.28581 5.37602
C 1.86262 -6.86277 -2.38155
C 6.69206 1.04422 -6.34606
C 4.97343 6.08951 7.40385
C -1.93899 -3.98720 -0.95190
C 10.49977 -1.07824 2.11962
C 2.90820 -10.20317 5.33227
C 4.63733 4.39351 -3.28011
C -3.30998 -0.84774 -3.14269
C -11.64058 -1.17755 0.34221
C -8.01307 5.16081 -3.96677
C 7.60754 3.50875 6.01627
C -4.45525 -5.71075 2.73187
C -0.01488 -1.40715 1.88886
C 5.59533 -7.62585 2.11275
C -6.77128 3.82236 0.97117
C 8.97541 6.38037 -2.97642
C 7.08501 8.76297 0.67571
C 2.53308 4.18491 11.23107
C -2.91657 9.15469 6.51300
C 10.41971 -1.07565 -0.42872
C -6.16182 -8.82869 0.54853
C 2.59524 -7.14532 -8.33675
C -9.12010 2.85334 7.67947
C -8.10155 2.40121 8.53985
C 6.68804 8.82759 -2.34694
C -11.76270 -2.94564 2.86028
C 3.86945 7.65088 5.72301
C -10.59552 -3.11638 3.57177
C -6.68111 -6.52102 -1.68134
C 11.06839 0.20180 -0.43754
C 4.04110 -10.37644 -2.66437
C 0.61078 -10.32705 4.26724
C -4.02788 1.98343 -10.41040
C -4.27057 -4.93606 10.09772
C -7.19048 4.34852 -7.49944
C -5.60163 6.39139 5.65236
C 9.02597 -2.68207 0.95348
C 1.89458 -8.30486 -7.75789
C 1.69312 2.01577 10.96394
C 9.54786 -4.85536 2.22878
C -7.90177 5.27807 -5.37036
C 10.69644 -7.11077 -2.67500
C 8.15107 -6.63239 5.22965
C -7.41671 -2.84283 -8.38737
C 7.01578 6.88806 -4.28025
C -0.11218 -6.52206 1.11748
C 2.44259 6.91035 -5.00717
C -9.08769 0.13341 3.06259
C 0.17505 -8.72043 -6.88636
C 3.84041 -2.04487 3.05488
C -6.04371 6.72406 3.05164
C 6.08111 -5.81628 -7.41180
C -2.69903 -10.28874 0.41176
C 6.13984 -1.18611 -5.05902
C 3.80586 3.44562 0.30059
C -0.21836 -10.69128 -1.38563
C -2.10811 8.04869 -3.20375
C 6.32795 -1.35510 1.38214
C -8.99649 3.37943 2.69220
C 6.51522 -7.78162 -1.94517
C 6.18476 1.21976 10.66861
C 0.65382 10.55724 4.11770
C -4.69094 0.74021 -9.97804
C 1.08126 -10.94428 -2.03573
C -12.77509 -2.47406 2.27500
C 4.06729 -7.13657 8.23396
C -10.44882 -5.10933 -3.26806
C -3.69541 1.12933 11.03317
C 8.69253 -2.14800 -6.45775
C -3.33001 -3.59139 5.20833
C -8.41471 1.95763 -7.39391
C 3.09249 8.39873 6.56272
C 11.02126 -1.29566 4.71024
C -7.96277 8.02529 -2.37461
C -4.35750 8.78993 -5.55128
C 6.45922 -2.91912 -3.31486
C 5.96787 -4.95791 -9.51683
C 6.47458 -6.74472 -3.94344
C -0.93140 -8.78953 -6.07375
C -7.44329 -1.95678 10.20617
C -0.97126 -2.74099 11.80837
C -8.62972 0.88541 1.89735
C 8.93866 -5.90547 6.28632
C -7.90015 -5.23230 -7.12717
C -0.62090 10.33036 -5.45405
C 5.43010 2.20622 -9.64012
C -5.34662 -2.49739 -2.78753
C 0.60508 8.45221 -2.61478
C 5.33449 -2.38551 -5.66621
C -5.86273 3.07801 7.48572
C 6.09051 -4.09033 -1.21313
C 3.32054 -6.93258 10.56496
C -0.75178 -4.85367 -1.51216
C -2.36798 5.32636 5.13553
C -4.72225 0.55294 -7.57347
C 10.63265 0.15661 -2.97500
C 0.67483 3.36738 -3.21023
C 4.58353 9.66140 -5.73771
C -4.88885 -2.96288 -6.66732
C -10.36430 -0.68510 6.46108
C 2.68936 -0.52778 -10.64357
C 9.62629 -5.39260 3.65143
C -5.21380 7.83031 2.30962
C 9.08639 -6.01839 -0.93323
C -12.50841 -0.01951 2.42565
C -7.04145 6.20412 -6.06785
C 1.88726 9.09375 6.24159
C -2.01107 -4.91927 -11.55633
C -7.30897 -8.56000 0.17250
C 5.76290 6.67090 -4.88712
C -4.18760 9.93022 -4.62310
C -3.57594 -9.02970 7.29780
C 7.59833 2.20518 5.54054
C 7.08125 -7.51118 1.98577
C 1.90158 -6.45523 -9.46219
C -5.07657 6.12393 -0.55519
C -4.96553 7.04006 -6.93601
C -0.97237 -9.11209 -3.63553
C 5.26098 -3.77892 -3.72071
C -1.43364 5.73597 -4.69453
C -5.64221 3.73822 -0.20301
C 6.92983 4.71613 -6.12671
C 4.16348 -9.94855 5.43695
C -4.13866 3.41029 -7.47248
C -11.37143 1.57369 3.97788
C -4.71065 5.56757 -1.85805
C -1.62700 6.85273 -8.81682
C -0.55705 5.25551 -10.20887
C 1.42884 4.13014 -9.89144
C 3.78862 -5.26594 6.93097
C 3.08290 7.95444 1.29379
C 0.78451 6.10390 10.16196
C -3.91924 -1.65730 3.58272
C 1.01709 -9.03456 0.82785
C -6.77886 -3.02485 5.64264
C -8.68566 -0.79854 -1.28839
C -1.62104 5.48900 2.13414
C 1.53741 11.49346 -0.67965
C 6.42570 -7.08310 7.02983
C -9.67874 -2.78494 -2.06308
C 2.28442 8.17510 -7.63077
C -0.75573 -7.34776 6.72063
C -0.97450 -5.07569 6.17923
C 1.15341 1.23499 7.54211
C -3.72432 -3.48859 -9.74682
C 1.34444 5.63090 6.16491
C -5.30040 -1.88645 7.67837
C -10.14935 -1.81968 4.18647
C -0.50889 3.62044 -3.91349
C 3.17572 -9.97617 0.64693
C -1.50410 -2.64130 -10.73283
C 6.02595 5.33531 -8.18519
C 0.98137 5.30990 2.16792
C 3.24249 2.21037 -6.59219
C 1.72922 -4.33192 7.43030
C -4.25631 -9.32898 2.03510
C -0.25031 11.03498 -2.21742
C 9.35864 2.13382 -3.75980
C -4.96819 -2.48825 8.90201
C 8.67658 -3.36957 -5.81686
C 8.26522 -3.49137 -1.40462
C 2.87482 -7.53607 -1.77605
C -6.29425 -4.76247 4.12865
C -2.14966 2.86676 8.30066
C 7.71080 3.51627 7.46699
C -6.59269 -5.60483 6.27679
C 2.12613 -6.82005 1.77672
C 10.43482 -0.83750 3.41516
C 0.40115 1.29210 -7.55188
C 10.41809 -1.13270 -2.80912
C -8.93426 5.63304 1.96969
C 7.07580 -5.97308 -4.95427
C -8.02331 -7.34413 -6.44900
C 8.92492 -6.07596 1.71572
C -3.12128 0.94770 0.94874
C -1.86613 5.40104 0.66755
C 2.00504 5.79600 -0.00453
C -1.39552 -3.02213 -7.77753
C -3.85468 -8.18176 -0.10247
C 2.54397 7.04713 2.17783
C -7.13188 -5.02532 0.19370
C -3.70902 9.09291 1.10775
C 9.98923 -0.52810 5.54236
C 1.71963 -2.52034 9.07392
C 2.03680 9.58342 2.63865
C 7.61298 -0.96850 10.94456
C -4.45908 6.54379 7.68194
C -2.00777 -4.59153 10.79657
C -3.33856 -11.10524 4.04970
C -9.41990 -5.25790 -4.26547
C -3.18383 -10.20888 1.82838
C -8.59738 -1.17710 8.01045
C -8.05858 -0.11285 -2.36930
C -0.74017 1.21509 9.14938
C 1.75645 3.45923 -7.95942
C -7.92485 -6.85609 3.24798
C 6.49843 -3.22690 10.26555
C -10.78726 -0.15829 -3.89696
C 2.75302 6.72250 8.56313
C 6.74067 -0.60226 3.95195
C -5.37041 0.82700 -8.74921
C 11.17994 -3.92866 4.88571
C -11.49926 -4.36939 -3.34267
C 10.66117 6.04297 2.06025
C -7.38423 -0.39321 -8.37765
C 9.52484 0.36443 8.00767
C 5.65834 5.58727 -5.88194
C 1.34275 8.19363 -1.49355
C 5.02510 0.17535 0.36541
C 6.33126 0.85086 0.66606
C -4.40100 -7.81539 -4.16720
C -9.36480 -2.90694 -4.71365
C 3.38588 -6.32131 2.47180
C 4.41311 9.09220 -3.18476
C 0.64935 -8.00623 -4.51018
C -4.93467 0.33863 2.50298
C 2.62402 -1.83284 -8.08595
C -4.77009 -8.77437 0.78513
C 7.97722 2.11508 -3.14016
C 6.50537 1.64823 4.80326
C -2.88747 -10.21303 7.55592
C 1.80941 2.32666 0.16945
C -5.86785 3.80084 3.60910
C 6.08578 -1.46050 -9.11260
C -7.57442 6.91891 2.57195
C 1.52860 0.86667 10.01306
C 1.94313 -4.35655 -1.45920
C 6.68058 -4.84453 -8.32761
C 4.41765 4.92635 -2.16057
C -4.12284 3.00625 5.11064
C 0.30871 -4.50960 -7.94762
C 2.15614 -2.32218 1.16441
C 0.79183 11.34418 -3.05985
C 3.03720 5.14389 10.36278
C 3.46684 -5.34347 -3.49500
C -2.04426 3.19793 -11.21711
C 0.02537 -10.94934 6.93344
C -3.62631 9.43906 2.50583
C 5.84471 -0.98996 -7.59395
C -5.09187 -6.11524 0.28354
C -1.35624 9.07521 -7.54553
C -6.28634 9.06231 -4.08838
C 2.68580 0.18676 4.74038
C 8.90761 3.40718 -1.41823
C 1.17020 7.75466 -5.05332
C -6.83785 2.92043 8.41585
C -0.97496 -0.30239 -0.18797
C -2.31580 0.31899 7.48676
C -0.15749 6.51825 7.94816
C -3.92773 -4.90696 5.18583
C 0.72305 10.25530 -5.13571
C -7.02616 -7.70778 3.56457
C -2.24515 5.14668 -2.09147
C 1.29686 8.57012 7.46802
C -0.06071 -5.55544 9.66756
C 9.19872 4.01625 -5.50817
C 0.47174 4.59407 -5.82911
C -1.18012 -11.15016 3.02396
C 3.92027 -1.18131 -10.58289
C 1.24046 4.25161 11.64580
C 8.34761 -0.83225 -6.65786
C -12.38551 -2.01829 -3.48177
C 4.37338 -3.13265 5.17864
C 3.61515 1.75616 8.13549
C -11.88528 -0.06397 -0.45387
C -12.42246 -1.17911 1.72233
C -4.38913 -10.20583 5.47935
C -4.37215 2.65816 -6.38392
C -9.68230 2.93787 5.16775
C 3.36818 -10.89508 -1.49103
C -2.15517 -6.62163 2.48042
C -4.97947 9.74508 -1.24256
C -8.45477 -4.53177 2.81756
C -3.98860 5.42010 2.39816
C -5.15792 3.70147 -8.79400
C 1.37964 -1.55572 -6.13150
C -7.22795 -6.70188 -4.06180
C 9.58707 -3.08591 -2.07831
C 4.17269 2.61065 10.67243
C -9.11278 -1.93727 0.73464
C 4.52428 0.36003 -8.97686
C 3.62384 10.49650 -0.72548
C -2.19355 -8.55183 -6.49036
C -1.79619 0.95516 -10.89774
C -0.09882 -7.03461 -0.34575
C -0.78691 3.10634 11.32539
C -8.66901 5.18589 4.38924
C 6.77633 5.59200 6.11409
C -3.38128 3.45541 -0.76029
C -5.54433 0.80639 -5.41289
C 9.19458 7.13263 0.34253
C -4.94168 1.59625 -1.24457
C 0.50622 -8.33682 -8.14935
C 2.10597 -2.32477 11.38956
C -10.31944 0.86136 -3.03684
C -0.81148 7.85306 4.08963
C 4.86648 -2.39452 6.26104
C -5.25204 -4.82133 9.21647
C 1.28461 -1.68446 10.32252
C 1.64651 -5.48809 -4.91609
C -4.76303 8.76109 3.17622
C 3.45627 -8.72828 1.20803
C 1.24221 -0.55909 -1.46309
C -0.91007 -8.65723 7.28464
C -0.91889 0.24814 4.29051
C -1.84947 5.48997 -10.72524
C 6.00378 -1.83731 0.06457
C -5.19947 -3.52968 -11.48113
C 8.44621 -5.89653 -2.86143
C 7.17239 -3.07632 6.22642
C 2.72800 0.31147 -4.97067
C -4.71700 -7.05555 -6.74115
C -3.30563 7.16621 -3.13802
C -7.03361 2.21795 -3.73179
C -5.26112 10.39493 -2.30247
C -0.99544 -3.80258 -11.24907
C -1.58830 -5.01262 -6.30399
C -2.01652 -1.42608 5.71666
C -4.64226 -0.74986 7.43127
C 4.89182 -8.44941 1.23753
C 0.10757 -2.87881 6.72970
C 0.68157 -5.66693 -5.90865
C 8.71969 2.65913 -7.73332
C -4.65302 5.68425 10.02583
C -2.08828 -9.15461 -1.66780
C 7.84608 8.38363 -1.48059
C 6.33755 -3.77043 1.34643
C 10.60296 1.34422 0.44002
C -5.73322 2.52936 2.89230
C 4.29591 -5.75068 -0.51552
C 8.45658 2.36588 0.73853
C 3.78466 7.47366 0.17892
C -6.72623 0.42595 4.23334
C 3.68198 9.92166 -6.56976
C -2.71322 0.12913 10.46539
C 5.70365 -1.15532 11.46858
C -0.82496 -0.50859 -2.78973
C -7.14206 1.65731 5.95462
C 4.15817 4.99473 9.64481
C -4.71214 7.41791 -0.21371
C 4.19298 6.55195 -8.01251
C -3.51890 -4.88012 -4.83973
C 3.90523 -0.25617 -4.05214
C -5.83628 -2.02996 2.17427
C -7.87740 1.03171 9.08170
C -9.03726 1.94499 -5.26652
C -11.80730 0.98880 -1.17619
C -8.80487 -1.67889 -6.83450
C 1.38139 -4.86774 -3.72291
C 4.66378 -5.52367 -9.27777
C 6.61674 3.32395 -5.61247
C -3.56317 3.12157 8.73004
C 3.51157 1.59164 3.02376
C -4.22656 -2.98310 -3.65141
C 2.35365 -5.21019 -10.21276
C -6.68908 5.61878 -7.30498
C 0.77550 -3.19591 -8.32975
C -7.04826 -3.68065 -1.77948
C 3.41978 7.03345 4.57411
C 6.54251 7.90511 3.26833
C -2.54222 6.98218 -6.45114
C 10.53723 3.76675 -3.18800
C -0.57838 -6.65683 -2.87297
C -0.88628 -8.33785 4.34237
C 6.98395 -6.03116 7.74747
C 6.93404 -6.56095 -2.55670
C 2.67530 -4.45028 4.12690
C -9.09527 -2.27927 2.11476
C -1.95371 2.47497 -2.44261
C 2.10162 -9.73211 -4.03639
C 2.52835 3.46396 -6.62564
C -5.30163 8.50873 4.52102
C -8.34658 7.46575 -1.10294
C 4.39438 -6.30069 4.67355
C 0.09914 -8.40974 -0.24223
C -3.31049 -1.40248 0.05057
C 7.47038 3.28635 -8.33474
C 3.78550 3.79397 3.60334
C -8.83955 -6.34847 -2.34052
C -1.86808 3.17220 1.20473
C 5.22844 -9.65549 -2.15396
C -9.06695 0.94952 4.24838
C 7.29380 0.97862 -3.55476
C 8.36881 -1.31446 -3.89735
C -2.53069 -11.32479 6.67084
C -8.37983 0.45350 0.57284
C -6.91058 -0.79588 6.13638
C -3.21670 2.35797 11.02746
C 6.69433 -0.57950 6.01082
C -9.35456 3.42941 -1.60090
C -0.94955 1.52196 -4.25043
C 8.88440 -4.56586 6.66002
C 1.58240 0.51929 -7.31846
C 3.12633 -6.13799 7.83861
C 4.78448 1.33119 10.78983
C 4.60382 -4.44426 -1.48137
C -2.03279 2.25704 3.91435
C -6.68915 -2.20822 4.44401
C -5.49973 -1.71998 -9.72478
C 4.98854 3.19171 -3.89249
C -2.30705 9.93372 2.90423
C 2.80248 1.92781 -9.96365
C -3.59189 -3.61713 -7.16762
C 4.12076 -2.18670 8.33567
C -3.41959 -5.83320 -1.37700
C -3.13768 -5.72773 6.01400
C -3.31464 5.05664 6.11707
C -0.84797 -1.61056 -5.14757
C -5.95290 -0.68341 -0.89635
C 2.49620 5.03123 5.65703
C -2.67893 3.63853 -4.65810
C 5.86746 5.74732 1.96451
C 1.15068 -4.62680 2.24473
C -1.70829 3.42449 -7.33933
C 0.01312 5.24793 4.05326
C 0.15813 -8.93707 -2.67610
C 6.15494 5.24268 7.36217
C -3.96520 4.47765 -10.65258
C -0.22276 4.14550 7.60201
C 3.53140 4.15373 7.65990
C 11.56369 2.97145 -2.71415
C -6.97547 -4.16487 2.81763
C 6.64176 2.61214 -1.06735
C 1.83728 11.35202 0.68375
C 8.22432 1.27674 6.34420
C 9.07945 -2.81833 4.90042
C 1.30723 0.74254 -3.09245
C -8.17856 2.17679 2.17660
C 0.96581 5.86581 -6.63932
C 4.35652 -3.66049 -10.43536
C 8.61468 -0.09904 0.91517
C -4.49998 -0.19777 -2.80218
C 0.62815 -2.47846 -3.53635
C -8.35844 5.12652 -0.57023
C 5.40943 1.26099 -6.80228
C -1.11724 7.71765 -4.15592
C -1.98268 9.11197 -2.27777
C -2.27918 -3.33794 11.46333
C -4.97525 -1.52526 -6.31112
C 8.15373 -3.29600 -7.09392
C -3.45576 -5.81343 -8.71434
C 3.42069 -3.93962 -6.99150
C -3.31179 -1.19642 -10.47490
C -5.95834 -3.51581 9.15229
C -2.79510 5.41413 -6.48874
C 5.88308 2.42467 3.79508
C -7.35085 2.13712 -8.36138
C 3.74117 -6.88182 -5.67969
C -6.88679 -0.68147 -3.11838
C -1.09397 0.88612 1.95277
C 9.37673 6.01017 -0.44350
C 8.15211 6.04193 -4.30988
C -4.45797 -3.45391 -0.80385
C -5.63722 -6.04004 7.12563
C -2.82796 6.49290 4.19309
C 8.14790 1.78034 9.29095
C 0.11029 -3.07982 -0.15479
