120
C120 1000 K last frame of liquid_carbon.lammpstrj
C -1.97430 1.42011 3.69740
C 0.53572 -1.02805 1.10620
C -4.67317 -0.62802 3.14896
C -4.96913 -0.16573 0.95256
C -0.88733 0.46584 -1.35758
C -0.31699 3.61813 1.38811
C 1.32730 1.29781 -0.71264
C 0.73936 -0.86045 4.43158
C 0.82498 -2.09146 -4.09030
C -3.65699 -1.05757 -2.32229
C -2.89007 -2.18419 3.21139
C 1.29319 0.04330 1.40540
C -4.08210 -0.90058 -1.07123
C 1.68250 0.92647 0.55765
C 2.98560 -0.37439 3.71835
C 0.07509 -5.16596 -0.30446
C 0.30992 4.09563 -0.83525
C 0.45928 0.36971 -1.37382
C -2.10151 -3.84755 0.42412
C -1.33354 -4.10663 -1.79036
C -3.65924 2.09232 1.59917
C 0.36101 0.47733 4.35227
C -1.44565 -3.79698 1.76781
C -0.06686 0.17171 -4.40669
C -0.56013 -2.70333 3.70712
C 4.16592 -0.69975 2.91073
C -3.34385 1.09568 3.66120
C -2.78835 -1.17208 4.20735
C -2.43461 -3.20152 -1.74574
C 0.80565 -1.09706 -1.40172
C 3.06146 -2.76288 2.28209
C -0.67110 2.88391 -2.99607
C 4.80621 -0.13647 0.18913
C 3.29310 2.97423 -2.57040
C 2.99364 1.81893 -3.25901
C 2.26114 -0.27841 -3.78896
C -0.34818 -1.24057 -4.20095
C 1.31675 1.49132 3.82493
C 3.12373 -3.81224 1.39119
C -1.75467 -2.99374 2.80776
C -1.50046 3.36883 0.66313
C 3.45714 4.05875 -0.90641
C -4.50093 4.41661 -1.29891
C 1.21378 0.64728 -4.26866
C -4.02499 -2.08707 -0.20086
C 2.81659 -2.36918 -2.80037
C -4.50652 1.99228 -2.12847
C 1.85793 -1.37238 3.80748
C 4.54134 0.53292 2.49362
C 3.21949 0.45085 -3.10474
C -0.73792 -0.98939 1.52963
C -2.75821 3.52341 -2.84870
C 4.65565 0.44755 -1.09041
C 0.80827 -3.34215 -3.24501
C -2.35902 -0.21180 -4.01936
C -1.66246 0.29135 -0.34009
C -0.25712 2.91395 2.64429
C -1.14996 3.76801 -0.82940
C 3.34655 2.73230 2.37597
C 0.69762 -4.68010 0.88240
C -3.76556 1.97739 -4.56399
C 2.13968 -4.54740 -1.69627
C 3.94786 -2.22687 -0.52393
C 0.55379 -3.13976 2.98596
C 0.78815 -1.88013 -0.26956
C 4.23630 3.04121 -1.42183
C -4.17754 -1.75862 2.50444
C 2.15436 -1.61928 -3.88384
C 2.07077 3.97960 1.20097
C 2.50846 3.99057 -1.96276
C -4.18010 1.46049 2.75024
C -1.51618 2.34115 2.81486
C 4.00653 -1.67717 1.98049
C -4.42329 1.54816 -0.75140
C 2.80029 -4.38451 -0.48862
C -1.04239 0.52623 4.49244
C -2.66662 -2.16183 -2.77044
C 4.80543 1.89610 -0.68960
C -2.70377 2.55431 -3.89742
C -0.45445 -1.65329 4.58705
C 4.21994 3.09654 1.26304
C 3.94107 -0.33855 -2.06740
C -1.40010 2.10585 -4.03320
C -0.07772 -4.10945 -2.40264
C 1.61589 1.96621 -3.82360
C -4.11214 2.42004 0.29712
C -4.00451 3.47812 -2.15898
C 2.68666 0.94303 3.70279
C -1.25857 -4.64509 -0.41354
C -3.48114 0.02977 -3.30807
C 2.09214 3.34620 2.43244
C 0.69182 2.96708 -3.08880
C -1.49737 -0.82399 4.76813
C -1.64830 3.41229 -2.07931
C -4.13423 1.27801 -3.34730
C -3.74863 -0.15789 4.19319
C 3.62631 -1.69263 -1.90607
C -5.16990 0.38465 2.33496
C 4.24319 -1.37536 0.52610
C 2.17609 -3.58461 -2.75570
C 4.93066 0.76540 1.27056
C -1.74605 -0.36911 0.78878
C 0.66763 -5.04575 -1.63337
C 3.25742 3.96278 0.49010
C 3.72834 1.63880 3.11359
C 0.75184 3.93676 0.50792
C -1.75634 -1.44192 -3.76932
C -4.49805 3.75542 -0.16607
C 4.88693 2.02550 0.73596
C -4.48390 -1.61260 1.08515
C -1.25695 0.80672 -4.39739
C 1.86410 -2.69988 3.14086
C -4.50041 0.16173 -0.41323
C 0.02002 -4.00747 1.83175
C -2.28969 2.64845 1.57242
C 2.09830 -4.53235 0.76255
C 1.02633 2.62912 3.03105
C 1.14200 3.97208 -1.96438
C -2.96190 -3.04437 -0.46323
C 3.65692 -3.54470 0.11625
