120
C120 500 K last frame of liquid_carbon.lammpstrj
C -1.76183 1.75321 3.21034
C 0.15570 -1.40587 1.95949
C -4.31050 -0.76830 2.78085
C -4.72056 -0.48368 0.45760
C 0.02551 2.14362 -0.29741
C 4.85747 3.65026 1.00872
C 0.92320 1.36536 0.56199
C 0.78659 -2.04177 5.14479
C 0.23025 -1.66886 -3.12365
C -3.11168 -0.45223 -2.78679
C -2.81949 -2.87667 1.86043
C -0.73233 -0.21092 1.87271
C -3.20295 -0.27351 -1.37503
C 1.19878 1.94217 1.83886
C 2.45392 -0.91547 4.58861
C 0.72692 -5.30388 -0.65465
C 0.12378 3.67199 0.00466
C 1.64113 0.28231 -0.09319
C -1.55009 -4.65429 0.15825
C -0.92516 -4.30249 -2.03695
C -4.23308 2.55127 1.26951
C 0.70493 1.41295 3.00163
C -0.95572 -4.25029 1.46187
C -0.73332 -0.10121 -4.91350
C -0.36124 -2.59430 2.93011
C 2.64717 0.35608 3.96713
C -3.11644 1.22373 3.14033
C -2.52969 -0.69025 4.52854
C -2.12925 -3.53227 -1.82892
C 2.39860 -0.64626 0.68021
C 2.57220 -2.54179 1.99235
C -0.49206 2.35844 -2.89028
C 4.61260 0.29009 -0.21879
C 2.60067 2.08166 -2.99378
C 2.65506 0.87918 -3.82178
C 1.31873 -0.12843 -1.37654
C -0.91361 -1.08123 -3.82376
C 0.81610 0.59921 5.44880
C 3.23929 -3.45672 1.16414
C -1.52480 -3.26797 2.27091
C -1.97994 2.93155 0.45922
C 2.22839 3.75453 -1.30236
C -4.14688 4.36196 -1.56269
C 0.59961 0.28769 -5.08115
C -3.27353 -2.88132 0.42532
C 3.50928 -2.03174 -2.90988
C -4.86846 1.97963 -2.43551
C 2.08911 -2.23596 4.29788
C 4.36920 -0.19127 2.24055
C 3.78685 0.42692 -2.93344
C -2.15595 -0.40066 -0.42034
C -3.55157 3.27061 -4.00954
C 3.83768 1.71361 -2.34471
C 1.01875 -2.80243 -3.04529
C -3.08953 0.85923 -4.98601
C -1.34179 1.79756 0.17429
C -2.59150 3.80056 2.58489
C -1.92723 5.10867 -0.60721
C 3.63278 2.02425 2.23047
C 1.28086 -4.94758 0.59960
C -3.89674 1.99718 -4.58578
C 2.66598 -4.25160 -1.96553
C 4.98562 -2.04851 -0.22803
C 0.83658 -3.67740 2.80347
C 1.59672 -1.47358 1.45717
C 3.57955 3.68907 -0.96617
C -3.86085 -1.94053 2.19923
C 0.60311 -0.69035 -2.21285
C 2.45147 3.86712 1.01279
C 1.64786 2.81353 -2.15601
C -4.30711 1.44733 2.12243
C -1.88695 3.09695 3.37741
C 5.42838 -1.74540 1.02810
C -4.87541 1.49252 -1.02928
C 3.36399 -4.29136 -0.72627
C -0.66598 0.93185 2.81000
C -2.17507 -2.52518 -2.56962
C 4.36293 2.55509 -1.31181
C -2.27574 3.74743 -4.09381
C -0.44415 -2.08879 4.50910
C 4.61762 2.35458 1.22678
C 4.17021 -0.88846 -2.50452
C -1.33276 3.17255 -3.53784
C 0.34195 -4.01672 -2.63079
C 1.79958 0.41851 -4.79402
C -4.94447 2.67629 0.00523
C -4.31280 3.38653 -2.73220
C 1.24706 -0.66945 5.47121
C -0.65401 -5.04700 -0.83891
C -3.81409 0.03238 -3.86859
C 2.39781 2.74854 1.85787
C 0.29435 2.22094 -1.77594
C -1.42439 -1.25515 4.86973
C -2.91107 5.10444 -1.32488
C -4.56947 1.20664 -3.63151
C -3.36485 -0.12075 3.67018
C 4.80783 -0.74061 -1.18899
C -4.70452 0.19590 1.72983
C 3.80148 -0.40714 0.90475
C 2.53856 -2.88832 -2.78183
C 5.46704 -1.18765 2.17864
C -1.61508 0.30226 0.54057
C 1.29658 -4.80768 -1.86188
C 1.46867 4.00635 -0.01091
C 3.65739 0.81399 3.01427
C 3.74328 4.02212 0.43373
C -2.14085 -1.41209 -3.27526
C -5.00601 4.02332 -0.46830
C 4.81828 1.67035 -0.10892
C -4.26813 -1.85297 0.76192
C -1.86783 0.61860 -5.29482
C 2.07756 -3.10696 3.19138
C -4.42679 0.19151 -0.72377
C 0.48321 -4.43769 1.67105
C -3.09763 3.39975 1.39777
C 2.61504 -4.59844 0.52312
C 1.45462 1.01026 4.22323
C -1.12321 4.21495 0.18740
C -2.67488 -3.82065 -0.37781
C 4.02957 -3.17712 -0.04341
