120
C120 4000 K last frame of liquid_carbon.lammpstrj
C -1.72221 -0.86862 4.27035
C 2.39292 -10.49110 26.08692
C 23.68210 13.90951 -21.04703
C 18.56159 -8.21514 -17.22973
C -1.17068 -9.20431 3.85047
C 14.40912 -13.27278 -20.71251
C -0.50584 -10.38014 23.90139
C 16.81126 13.19927 -20.14792
C -25.82426 -3.14093 14.88432
C 16.43026 -9.33716 -18.42537
C -3.52099 -8.61433 3.36534
C 13.05373 13.76767 -19.37034
C 19.77111 4.64260 -10.91032
C 0.68400 -10.77724 24.27733
C -13.48937 24.68552 -5.24796
C 4.60076 -1.30036 5.31793
C -24.03206 -3.03378 17.96626
C 21.68788 1.24137 -7.56379
C 7.34300 -1.60452 9.61141
C 14.94822 -10.80247 -19.90484
C 19.64840 -7.36034 -17.08022
C -26.21890 -5.56187 17.34720
C 3.52957 -10.37110 26.90520
C 1.78789 -6.63954 3.84572
C -25.76010 9.18894 -20.36886
C -27.18273 13.53566 -21.13286
C 12.11639 17.75177 28.77597
C 14.38828 13.53409 -19.74618
C 15.80495 -10.22696 -19.06388
C 24.04905 6.27091 -20.20226
C -1.20286 -9.76634 22.80883
C 0.71869 -7.78842 4.00266
C -5.22724 -10.61038 3.71323
C -11.90787 -24.37123 -6.21080
C -12.20545 -25.59753 -6.28430
C -8.44745 -15.66431 0.77425
C -25.45244 -1.79244 14.94205
C 20.35813 -6.55219 -16.37509
C -3.90753 -0.76691 8.19291
C -25.36938 -3.65730 19.29361
C -27.59498 7.44977 -20.28835
C -25.81496 -4.29968 15.03915
C 12.05709 14.03354 -20.01298
C -2.17834 -8.57175 3.12544
C 10.18993 15.79580 -20.74647
C -9.43286 -17.14665 -18.08318
C 20.45312 2.62570 -9.46151
C 17.80388 13.81067 -20.32550
C 1.58676 -10.49925 25.34544
C -6.95210 -16.47345 -18.48163
C 13.48980 19.05393 22.72362
C 18.13094 10.20188 -11.92535
C -5.24354 -15.19846 -21.50154
C -26.27219 -6.46928 16.37233
C -25.91150 -5.33958 15.63024
C 12.26638 18.17839 26.17772
C -5.62502 -15.25295 -20.21934
C 0.46411 -0.10859 3.50938
C 3.74878 -1.33082 4.21367
C -6.43087 -15.76446 -19.39301
C 18.97382 7.90543 -12.25542
C -5.31475 -14.20328 28.46732
C -5.43308 -14.91206 29.54901
C -15.21334 23.49302 -4.27807
C -7.91765 -14.58696 1.57074
C -3.15095 -1.20658 4.54327
C 22.55313 14.60774 -20.67077
C -24.97311 -1.52589 15.98884
C 13.03581 18.11293 25.09948
C 14.57249 -12.03222 -20.32299
C 6.93822 -1.52495 8.22525
C 21.40402 -5.85814 -15.94539
C -25.18569 10.82467 30.02803
C 9.14277 16.56413 -21.24978
C -16.25559 23.44140 -3.47990
C -1.59202 -9.53051 21.70447
C 17.47229 -8.86400 -17.59789
C -4.16473 -0.57988 6.93897
C 19.00585 9.08064 -11.97775
C 1.29326 -1.10246 3.57301
C 7.85858 -0.55062 10.18896
C -8.21011 -17.13129 -18.55634
C -26.45765 8.18404 -20.20586
C -25.76580 -4.67019 18.43943
C 0.05087 -8.90553 4.04111
C 11.07628 17.86598 29.66881
C 20.25310 4.00920 -9.86875
C 4.44727 -10.35762 27.82787
C -25.38688 12.24458 29.80046
C 18.89456 6.67563 -12.16660
C -17.43873 23.45415 -2.68053
C -4.48618 -9.70177 3.53937
C 15.65360 13.21489 -19.41250
C 21.10892 2.04424 -8.54016
C 19.49235 5.54823 -11.73915
C -26.23990 12.80515 -21.62473
C -6.09657 -12.59404 2.25842
C 11.37851 15.04397 -20.39618
C -2.81963 -8.35175 4.69064
C -4.44355 -14.30479 27.52951
C -3.55453 -0.81251 5.76758
C 5.75340 -1.61272 6.06605
C -12.97420 -26.72990 -5.88266
C -23.81671 -2.97464 19.16138
C -24.02166 -3.79428 20.23790
C -7.13260 -13.49967 1.97761
C -24.40079 -1.83136 17.37595
C 11.94263 17.95766 27.54842
C -0.50908 -0.54811 4.20280
C 19.92638 14.78275 -20.18455
C 1.74803 -7.30240 5.03440
C -25.64626 10.04551 -21.33765
C 10.48113 17.20369 -21.51507
C -14.62686 24.18931 -5.15241
C 13.03753 18.60172 23.90677
C 2.47896 -1.42721 3.61151
C 21.21899 14.66703 -20.42680
C 6.58479 -1.01705 6.89488
C 18.86816 14.42311 -19.95071
C -5.78139 -11.59871 3.15318
