120
C120 2000 K last frame of liquid_carbon.lammpstrj
C -1.05503 2.61261 2.66331
C -0.48303 -1.91017 1.23331
C -2.86290 -0.56434 2.97964
C -4.25178 -0.67489 0.83276
C -1.05148 2.04295 -1.10655
C 0.91855 4.38568 -0.09319
C -1.88528 1.47533 -0.31841
C 0.79202 -1.56411 4.64535
C 0.58388 -1.55142 -3.52545
C -3.08849 -0.48201 -2.39147
C -2.66856 -3.22147 2.90388
C 0.46900 0.21742 1.50576
C -3.78175 -0.96687 -1.40533
C 0.66078 3.86257 1.11242
C 2.78127 -1.03714 3.61016
C 0.21092 -5.14380 -0.20557
C -1.25758 5.08093 -0.06352
C 1.24580 0.69811 -0.61656
C -1.72886 -5.16961 0.95355
C -1.37372 -3.95669 -1.32717
C -3.93556 2.76991 1.21560
C -0.07098 2.71501 3.67625
C -0.89580 -4.98206 2.20884
C -0.28957 0.74868 -3.78536
C -0.23236 -3.63466 3.74515
C 2.60522 0.39850 3.43389
C -2.02195 1.57679 2.63692
C -1.08779 -0.14932 4.34553
C -2.69275 -3.40484 -0.91325
C 0.77520 -0.59464 -0.95734
C 3.38071 -3.03481 2.61404
C -0.14830 3.59572 -3.38450
C 4.38263 0.06764 0.62792
C 3.45369 2.14341 -2.81981
C 3.20282 0.76456 -2.87268
C 1.35211 0.86440 0.71971
C -0.50162 -0.61637 -3.43575
C 1.39574 0.71410 4.11535
C 4.08212 -3.65504 1.39955
C -1.58692 -4.01358 3.03580
C -3.46239 4.52779 -0.17772
C 2.95749 3.79644 -1.57334
C -4.69109 3.88044 -2.13720
C 0.97847 1.21412 -3.67586
C -3.33931 -3.22079 1.46966
C 2.83451 -1.87538 -3.10192
C -4.52658 2.75826 -3.11602
C 1.82303 -1.94309 3.91677
C 3.76626 -1.61902 2.39995
C 4.02539 -0.02054 -2.00785
C -0.74779 -0.59720 -1.09819
C -2.47186 3.83175 -4.12447
C 4.38994 0.65496 -0.88358
C 0.66010 -2.84428 -3.17015
C -2.65916 1.50950 -3.88379
C -1.50798 0.14517 -0.00088
C -1.65055 4.42910 1.14215
C -1.94703 5.10653 -2.25945
C 2.15290 2.51779 2.72657
C 1.14027 -5.57194 0.92758
C -3.57356 2.64270 -4.15446
C 2.11909 -4.10448 -1.71262
C 4.39652 -2.33595 0.16996
C 1.06985 -4.01849 3.18244
C 1.24141 -1.73458 -0.29845
C 4.00669 2.64056 -1.69533
C -2.68272 -1.86613 3.39189
C 1.83834 -1.02784 -3.63135
C 2.87312 3.29736 0.58294
C 2.30288 3.07266 -2.77577
C -3.36276 1.64632 1.96529
C -0.60360 3.62482 1.65690
C 5.35696 -4.08933 1.61646
C -4.71116 1.23830 -0.79534
C 3.19890 -4.46522 0.27559
C -0.71807 -0.53023 1.16216
C -3.45952 -2.31699 -0.81320
C 4.29831 2.00194 -0.62314
C -0.54117 4.75729 -2.39810
C -0.29876 -2.42012 4.42698
C 3.93391 1.20309 1.42321
C 3.63675 -1.35582 -2.04985
C -1.13674 3.02616 -4.04093
C -0.12835 -3.73852 -2.25140
C 2.15269 0.32766 -3.61761
C -4.44257 2.61721 -0.06665
C -4.34138 4.93606 -2.74510
C 0.37172 -0.18479 4.41930
C -1.06621 -4.87178 -0.12851
C -3.41172 0.69503 -2.95820
C 1.87282 3.32452 1.58637
C 1.18750 2.73857 -3.38121
C -1.53927 -1.68417 4.29428
C -2.98317 4.71539 -3.14262
C -4.62297 1.58029 -2.38530
C -2.02545 0.39071 3.53446
C 3.85994 -2.53636 -1.01842
C -3.76248 0.20943 2.00823
C 4.06697 -1.20322 1.11634
C 1.97454 -3.01532 -2.72854
C 6.43593 -4.66756 1.22312
C 0.54000 -2.52601 0.52777
C 0.77587 -4.35906 -1.36672
C 2.36850 4.24834 -0.44646
C 3.03476 1.34859 2.53970
C -0.08540 4.82061 -0.88697
C -1.59199 -0.53770 -2.41889
C -4.44503 3.76096 -0.79482
C 4.04838 2.40040 0.63549
C -3.81561 -2.02871 0.72504
C -1.34545 1.62657 -4.13304
C 2.04345 -3.17304 3.12707
C -4.47000 -0.15470 -0.41882
C 0.42266 -4.98493 2.16627
C -3.01477 3.99773 1.02094
C 2.46912 -5.43987 0.50431
C 1.09560 2.05053 3.55964
C -2.28739 5.27617 -0.91544
C -2.77231 -4.14053 0.44731
C 3.18140 -3.79061 -0.86122
