120
C120 3000 K last frame of liquid_carbon.lammpstrj
C 2.23602 -0.24846 1.88190
C -1.89129 -3.36507 1.24396
C -1.64752 0.85773 3.35479
C -1.12713 3.09577 3.13934
C 0.97017 -0.71436 -0.90479
C 11.74111 24.06230 19.02001
C -0.33079 -1.41630 -0.55544
C 0.05362 -4.05243 0.61830
C -4.62913 2.80185 -0.75428
C -4.03617 3.39491 0.30176
C -2.65863 -1.09731 2.38427
C -0.67340 -3.36538 1.61510
C -3.50277 2.32592 2.54346
C 2.33637 -1.55010 1.24825
C 1.86723 -3.85297 -2.13135
C -4.83199 -1.66451 -1.92212
C 4.08239 2.10927 -0.74247
C -2.13375 -0.23190 -1.10431
C -5.04859 -1.11517 0.59286
C -5.39606 0.44783 -1.13325
C 1.76442 2.20874 2.79297
C 11.50904 25.33086 18.75556
C -3.90316 -2.22163 0.92857
C -0.58652 3.60190 -4.49592
C -1.42167 1.27317 0.34465
C 3.34116 -1.34447 -0.19084
C 0.95773 0.02122 2.66968
C 0.29728 -2.22931 2.22592
C -5.38619 1.10515 1.20927
C -1.51425 -1.61577 -1.06659
C -1.84500 -4.00088 -2.26044
C 2.53803 2.66487 -4.22321
C -0.33711 -2.08219 -4.39196
C 2.34609 1.49849 -4.82166
C 1.19748 1.19674 -5.66528
C -2.50864 0.40771 0.03428
C -4.19426 2.75833 -2.12425
C 10.33373 -22.93164 21.62532
C -2.69886 -2.11584 -3.57801
C -2.88343 -2.41456 1.83980
C 2.83305 3.50661 0.90287
C 3.61429 0.59892 -2.97382
C 0.45589 4.98503 -0.69394
C 0.58979 3.40312 -5.10184
C -3.52299 -0.02157 2.33459
C -1.67746 2.77876 -4.86272
C -0.43292 4.80568 1.30843
C -0.36250 -4.43570 -0.71656
C 1.91530 -3.42478 -0.75809
C 0.38708 0.18134 -5.48013
C -0.78326 1.22871 -2.73774
C -1.02473 4.64843 -0.85093
C 0.68429 -1.15921 -4.98058
C -4.24933 1.53287 -2.96766
C -0.41741 4.28409 -3.27490
C 0.90904 1.57654 -0.23248
C 11.19323 -25.69817 19.41909
C 2.44817 3.61397 -1.71571
C 3.05184 -1.55140 -2.40610
C -3.87772 -2.65086 -1.59205
C -1.45391 4.15374 -2.11610
C -2.82482 2.56352 -3.95589
C -2.00418 -0.51234 -5.14201
C -2.43822 -3.93054 -0.05459
C 0.88966 0.61673 -1.34760
C 2.46076 -1.92875 -3.54505
C -1.49346 -0.65935 3.12210
C -0.29155 1.75595 0.28985
C 3.86318 -0.20714 -0.77340
C 2.69267 0.24607 -4.09976
C 0.64109 1.28628 3.00748
C 3.09708 0.82168 1.48318
C -0.51233 -3.91993 -2.73434
C -0.16168 3.78068 2.43406
C -3.75929 -1.18392 -3.82847
C 0.44930 0.87758 -2.52495
C -4.61801 2.27472 1.65182
C 1.98379 -0.89701 -4.25613
C 0.85816 4.50518 -3.13228
C 1.41287 -3.66385 0.56695
C 1.50211 -2.99101 -3.25076
C -1.11882 0.49057 -5.74960
C 1.61746 3.89185 -4.29029
C -5.16875 0.64030 -2.47840
C 0.33834 2.30967 -5.84489
C 1.11713 3.54433 2.58880
C 0.77854 4.99256 0.70152
C 10.91441 -23.95090 21.14306
C -5.14472 -0.83588 -0.71990
C -2.75178 3.87200 0.81353
C 3.72578 -0.45487 -2.06861
C 2.97421 2.90096 -2.89420
C 1.60591 -2.55609 1.56014
C 1.41684 4.42755 -1.84308
C -1.54800 4.40602 0.53424
C -0.08410 -0.93525 2.57125
C -1.00613 1.88337 -5.71627
C -0.61112 1.69796 3.52202
C -1.68675 -1.73295 -4.51207
C -3.59744 1.32797 -4.07228
C 0.39450 -4.46047 -1.81053
C -1.89604 0.44146 -2.37360
C -4.59267 -0.83108 -2.90439
C 3.78199 1.83718 -2.17127
C 2.92212 -2.38024 -1.12536
C 3.82149 0.88328 0.08318
C -5.28771 1.50784 -0.36371
C 1.74530 4.06801 1.37619
C 0.22105 -3.29203 -3.93483
C -3.13822 0.96948 3.28264
C -2.95302 3.40818 -2.83277
C -1.66298 -4.51922 -0.98430
C -2.64959 3.22538 2.22462
C -3.60501 -3.00752 -0.31512
C 2.80275 2.16511 1.71384
C -2.81667 -3.07240 -2.50740
C 11.40576 -24.81772 20.17359
C 3.21531 3.20835 -0.40127
C -4.68770 -0.01556 1.36553
C -3.20410 0.03961 -4.45773
