120
C120 5000 K last frame of liquid_carbon.lammpstrj
C -3.08433 0.99344 1.05410
C 19.02920 -8.46681 7.91036
C 1.39959 -20.89714 20.84035
C -13.66606 -10.14684 17.95669
C -1.27426 -0.50025 -0.12495
C -3.98750 1.83828 1.17070
C 12.68522 -1.27437 2.54125
C -28.97183 5.75567 -2.11321
C 1.32901 -3.62973 -2.03386
C 20.88022 -11.01272 8.65216
C -13.28819 -7.75014 18.75951
C -0.34904 -0.87560 -0.94301
C 7.27269 1.53731 12.66056
C 9.90057 18.76527 6.12715
C 8.17738 -20.95963 -14.49248
C 19.87005 26.89705 -19.48054
C 7.38585 -21.51732 -13.63893
C 7.16586 6.05659 1.10718
C -8.84067 11.17024 7.29546
C 13.78018 8.53531 -22.03052
C -2.54836 11.98110 -21.47408
C -15.75447 14.48835 0.38494
C 12.27731 -3.31112 1.19724
C -7.74978 -14.07306 1.94097
C -11.60119 -11.92749 15.49197
C 1.26773 -2.75823 -0.89774
C 7.83049 7.14925 1.06011
C -6.10528 -13.55831 3.97730
C -2.20434 10.06269 -19.72122
C -11.93408 -11.19154 16.52957
C -12.78336 -10.49598 17.11903
C 14.17075 7.39166 -21.52512
C -5.84751 12.26593 2.60760
C -9.99717 9.98516 5.25235
C 17.87029 25.70481 -17.90003
C 7.99004 8.44582 1.16830
C 1.36082 -4.39097 -3.05015
C 18.95574 -6.69185 5.99451
C -11.14725 -12.98452 15.39590
C -9.58189 10.44907 6.31847
C -21.27832 -20.92776 8.87550
C -23.28706 6.79196 -3.11285
C 12.43310 -4.32122 1.82949
C 9.39266 19.75000 6.96006
C -24.06329 -23.19343 7.21083
C -22.24674 -21.99247 8.46785
C 11.76778 19.47463 3.70789
C 6.26827 -22.07141 -13.05637
C -5.95424 -12.99623 5.22325
C -13.82902 -6.49464 18.77205
C -28.03313 5.78127 -3.50810
C 0.17203 -22.46788 19.33293
C -27.85080 6.32647 -2.23348
C -2.79871 11.15467 -20.53595
C 22.20897 -11.63117 8.69187
C -15.44099 13.46208 1.25962
C 4.13493 -19.61442 20.83116
C 3.71202 -19.46537 22.00255
C 6.17893 5.23198 1.28689
C 11.41039 -1.60694 -0.08251
C -5.04814 10.46234 1.00760
C -1.33633 9.28035 -19.28771
C -13.41326 -9.03333 18.65247
C -13.08117 13.44714 2.30234
C -10.75564 13.86545 2.42171
C -6.25945 -10.12683 5.03366
C -9.50593 13.83771 2.88203
C 0.63386 -1.68961 -0.82611
C -11.82933 13.72330 1.83267
C -6.90094 -14.94233 1.43234
C 9.05768 9.57505 1.52340
C 21.49726 -12.19341 7.55652
C -5.25466 11.44153 1.64084
C 18.01093 24.77515 -16.71996
C -7.40002 12.51837 2.50588
C 19.89068 -10.51865 9.37437
C 2.42804 -19.85443 21.33436
C 10.34406 18.13021 5.21254
C 15.73533 6.96791 -18.41598
C 5.34069 -21.94399 -12.35355
C -8.31333 13.52561 2.75962
C 18.31801 -5.58065 6.08708
C -5.77212 -11.43573 4.95017
C 6.54589 2.37654 11.88209
C -3.51439 8.01058 0.69096
C 19.03850 -5.05592 5.35249
C -7.11816 -9.74729 6.04320
C -25.84979 6.84420 -2.46343
C 12.92831 8.57773 -24.49550
C -1.80077 13.54823 -23.29051
C -23.09575 -22.69665 8.00696
C 19.11587 25.89628 -18.64831
C -14.17181 13.12480 1.86794
C -2.34164 12.97858 -22.31712
C -22.10339 6.30265 -3.09537
C 0.78855 -21.70607 19.97014
C 4.61551 -21.89065 -11.30905
C 19.16665 -7.62026 6.64530
C -3.39392 9.40124 0.59464
C -6.79938 -14.12039 2.71694
C 9.06363 -21.83224 -13.76432
C -5.01470 2.85477 1.09056
C 5.80179 2.99071 11.24551
C 4.50878 -23.16789 -10.18860
C -0.09994 8.82902 -20.02167
C 12.82753 9.13004 -25.86568
C 15.05831 6.66595 -20.86414
C -2.18731 -0.00104 0.62573
C 10.65428 18.87833 3.94601
C -8.60730 12.08956 8.04818
C 12.87842 -0.99557 3.65935
C 15.73574 6.67619 -19.58706
C 19.41909 -9.48299 8.60629
C -24.47904 7.12193 -2.67618
C 8.42361 19.54981 7.72292
C 13.32024 8.51217 -23.29751
C 12.19931 -1.95961 1.08273
C 1.04653 8.35110 -20.63714
C -26.59085 7.11007 -1.28730
C 4.86617 -22.02455 -9.90591
