160
C160 500 K last frame of liquid_carbon.lammpstrj
C -1.36603 -0.47748 1.47996
C -0.95213 0.55261 2.31454
C -0.30663 -1.24362 0.71510
C -0.01937 -0.52582 -2.55532
C 2.01964 -1.67484 0.39987
C -1.76939 1.10976 -2.77596
C -2.93097 0.87549 3.89275
C -2.84686 -3.93357 -0.55028
C 0.45993 2.84460 7.21927
C 1.01489 -0.83314 1.25023
C 4.94033 -2.55589 3.34142
C -6.37439 0.52635 -1.23064
C 2.17685 0.59694 -2.10308
C 1.32286 -2.73985 2.39839
C 1.55895 -2.79220 -4.39010
C 0.24892 2.74123 1.51402
C 1.16361 5.89166 5.40898
C 1.22265 -1.49479 -0.93834
C -0.14418 2.53391 -4.65865
C -3.24246 0.71485 0.81045
C 4.52339 -0.20465 -3.67279
C 1.36762 -3.80165 3.39420
C 5.63669 -2.31055 -0.94150
C -1.14854 -4.98173 -0.96417
C -1.79805 -4.02726 1.65006
C -1.83222 -3.39898 -5.21057
C 3.41052 -1.61013 0.97237
C 0.57480 -2.31028 -5.26640
C -2.68162 -4.06426 -3.02280
C -2.53141 0.12652 -2.35452
C -4.38522 1.32415 -3.74054
C -1.14897 -1.17335 -5.97890
C 1.44473 -0.74111 3.82842
C -2.58264 2.33696 -2.44944
C -3.78882 3.88442 2.75870
C -1.43923 2.54931 -5.17463
C -2.91857 -2.44290 -5.14993
C -2.21430 4.02191 -0.46568
C -0.50257 3.76159 2.03604
C 0.19079 -0.82427 -5.49024
C -2.67435 -2.85337 1.77883
C -6.05573 1.48120 2.47240
C 1.08457 4.03634 -0.55300
C 2.13167 -4.17239 -1.05470
C 3.08144 -3.28310 -3.00355
C -0.91229 -1.33640 -1.78303
C 6.61271 -0.06685 -0.53888
C 6.05727 1.09987 -2.45067
C 3.71271 -0.58240 1.73760
C -1.47613 3.55191 5.75052
C -4.80714 2.46520 -1.67207
C 3.80271 2.28723 4.06991
C -2.69194 -0.52732 0.97505
C -2.86734 -0.38336 4.45771
C -2.49659 -1.14832 -5.52928
C 1.78440 0.93014 6.97318
C 0.35918 3.58250 -3.80209
C 5.23749 3.33390 -0.80931
C -3.57904 -0.25347 -5.19811
C 2.49369 1.53436 -1.11273
C -0.90539 5.95112 2.48545
C -3.54920 3.17256 4.15686
C 5.84160 2.16686 0.93911
C 1.79055 0.06128 6.12057
C 4.35569 0.37801 2.35074
C 3.40346 -0.93309 -4.32887
C 0.20619 6.44871 4.71787
C -4.69094 -1.92125 2.65106
C -3.34813 -2.20451 2.94309
C 1.17243 0.63031 1.08488
C 2.25851 5.25616 5.71400
C -0.81684 -5.41959 -4.05749
C -4.09935 1.90248 4.10643
C -5.57873 -1.56987 1.84027
C -4.31255 5.06836 2.50903
C -5.27724 1.69350 3.45388
C -5.88466 2.42733 0.14046
C -4.40565 -0.98859 -4.35962
C 2.70481 -3.72577 3.77681
C 6.47549 -0.17369 0.93777
C -0.02514 4.88841 -0.53990
C 3.84886 -3.26283 3.59880
C 1.16398 -1.38677 2.66341
C -0.21139 -1.68404 -0.57268
C 4.27387 -2.69092 0.51340
C 2.70978 0.96372 -3.39664
C -1.02229 -3.58662 4.00339
C -1.78645 -4.37067 -4.15577
C -2.55675 2.03638 -5.34319
C 0.47154 -4.83527 2.93501
C 5.63481 -1.78371 2.65721
C -2.30013 -1.13950 -2.02501
C 1.12110 -4.39779 -2.03758
C -1.84484 -4.43693 0.27410
C -5.84172 -0.17192 -2.35880
C 4.97392 1.87280 -2.71976
C 5.63091 -0.26214 -2.75607
C 1.64430 -5.31943 1.21071
C -0.18803 -5.90583 -3.06301
C -2.35071 -4.54308 -1.76833
C 3.29411 -3.59416 -1.65052
C 1.68157 1.63532 0.08330
C 1.16831 3.97725 -2.94157
C -0.53936 3.31727 6.65773
C -4.63003 3.07037 -0.42418
C -2.15820 3.44309 -1.74779
C -3.25883 -2.59504 -0.52423
C -0.58123 0.67811 -3.25515
C -3.61037 -2.91241 -2.95841
C 0.24582 1.23452 -4.24101
C 1.50649 2.10237 7.46996
C -0.75663 -2.62167 -5.70436
C 2.95326 4.26089 5.39556
C -3.96898 -2.33825 -4.14909
C 0.10914 1.29639 1.79749
C 6.23133 -1.52276 1.41509
C -6.50294 0.09427 0.27966
C 2.90604 2.84235 -1.67870
C 4.81547 3.22572 0.52789
C 1.97958 -4.20918 0.44832
C 6.33186 2.29295 -0.41653
C 3.37742 3.16893 4.90808
C 4.38890 2.93299 -1.93683
C 1.01570 -5.96006 2.13053
C 1.70649 -3.74518 -3.26670
C -2.68574 -1.70067 4.14761
C 2.31626 0.06481 -4.43459
C -3.60914 1.21302 -4.91646
C 4.08858 1.13003 -3.48792
C -3.42824 3.12497 1.62771
C -1.57902 -2.57279 4.53295
C -0.02926 -5.17964 -1.84571
C -2.13649 1.34714 2.81373
C 2.97272 -2.33114 -4.13920
C -6.25899 1.42398 1.10531
C 5.73679 0.88608 1.60418
C -3.49155 3.55999 0.28998
C -0.47545 6.56421 3.55254
C 1.29468 -0.49165 -1.94041
C 5.97101 -1.03410 -1.54117
C 4.28281 -3.06075 -0.92423
C -1.20384 4.78435 0.10308
C -6.04990 1.83585 -1.19743
C -2.92643 -1.98585 0.65334
C 1.56328 -0.60908 5.04904
C -0.88502 -4.37308 2.81886
C 1.15382 2.86925 0.41388
C -6.24113 -1.06367 0.87382
C -5.05409 0.02732 -3.42728
C -2.89151 1.75767 1.65434
C 3.94570 1.26987 3.34094
C -0.95785 4.92574 1.55113
C 5.67679 -2.39782 0.50190
C -3.39102 -2.06376 -1.80592
C 6.56057 1.18158 -1.13732
C 1.68258 -2.99428 1.03766
C -2.52617 3.40892 5.03005
C 1.04420 0.20743 -4.93822
C -3.95876 2.21365 -2.74462
C 1.94932 3.85854 -1.74977
