160
C160 3000 K last frame of liquid_carbon.lammpstrj
C 2.17327 1.42200 -0.34023
C -1.65217 -0.43160 1.65781
C -2.12232 0.50769 2.79811
C 0.59742 -1.63062 -2.40618
C 2.69663 -4.05672 -0.10296
C 0.95800 -0.90908 -0.43450
C -2.66606 -0.28845 6.02287
C -3.04434 -4.56121 0.22495
C -1.54688 1.83446 6.01752
C -1.28945 1.26746 3.11426
C 2.46861 -1.12667 3.28998
C -5.33638 0.12047 0.67949
C 2.30001 1.43013 -1.62218
C 1.45269 -3.95031 0.41746
C 2.53385 -1.98232 -5.26495
C 2.93780 3.59897 2.06502
C 0.54629 4.64002 4.56289
C -0.68117 -0.04979 0.79098
C 0.90634 3.26967 -5.36084
C -4.62709 2.19782 2.01422
C 4.98728 0.61683 -4.19856
C 0.42581 -0.97694 4.48124
C 4.78841 -1.64998 -1.75347
C -0.94849 -5.47852 -2.37992
C -2.70360 -3.92988 2.45999
C -1.98917 -3.69288 -4.57785
C 2.85812 -2.71766 1.68257
C -0.48588 -2.28831 -2.18902
C -2.55403 -4.25351 -3.51686
C 1.63879 -0.83421 -2.62174
C -4.43175 -0.05364 -1.76908
C -1.88169 -0.00107 -4.64122
C -4.89661 0.52715 5.25016
C -2.81146 1.27495 -2.69110
C -3.57727 3.14668 1.31365
C 0.12790 3.51020 -4.11310
C -2.42333 -2.21777 -4.49951
C -1.47110 3.30454 -1.70026
C 0.26223 4.45564 0.47757
C 0.78864 -0.40166 -5.71938
C -3.99053 -3.23882 2.53416
C -4.43897 1.89809 3.45163
C 2.21947 4.11859 -1.30716
C 1.42874 -5.22751 -1.99747
C 3.03181 -3.50326 -2.76553
C 1.59542 0.78078 0.73146
C 6.61651 0.14641 -0.89524
C 6.18475 1.68884 -2.94307
C 3.41539 -1.41094 2.43716
C -0.80545 5.00927 4.02729
C -4.13047 1.87740 -0.39007
C 3.52576 1.18377 3.25500
C -2.55595 -1.50896 1.05376
C -3.62695 -1.36421 5.61699
C -1.74693 -1.22239 -5.23704
C 0.83244 1.07506 5.72635
C 1.06377 2.00985 -5.57752
C 4.56280 3.37860 -1.15246
C -1.18298 1.17821 -5.13538
C -0.33562 -0.94924 -0.22205
C 0.61955 4.75478 1.73428
C -2.86445 3.97067 2.16347
C 3.82367 3.57282 0.99756
C 1.44847 0.08721 4.93193
C 5.00456 2.38289 0.75301
C 4.12414 -0.31941 -4.81828
C -0.65657 5.03975 2.65159
C -5.07286 -0.84218 3.22169
C -4.07550 -1.93264 3.28666
C -1.33105 -0.47278 5.90303
C 0.30143 3.54320 5.35085
C -0.47556 -1.48784 -5.69473
C -4.97570 0.37566 3.89280
C -4.77987 -3.39850 1.62332
C -3.71834 2.49027 4.47423
C -4.76404 -0.71069 5.74790
C -2.82028 3.49555 3.96258
C -2.75386 0.24122 -3.48712
C 0.65372 -2.56049 2.57977
C 5.54032 0.06550 0.19837
C 0.82709 4.36024 -0.82054
C 1.15607 -1.63805 3.42976
C -0.52973 -3.39620 2.57806
C 1.97552 0.50047 -2.54479
C 3.56362 -2.99776 0.44505
C 3.40742 2.49428 -4.36240
C -1.68522 -3.33856 3.28639
C -0.66609 -3.91453 -4.86673
C -1.14378 2.43835 -4.14310
C -0.82021 -4.24143 1.16274
C 4.49660 -0.84047 1.96187
C -2.25189 -1.80938 -0.25830
C 1.02270 -4.69703 -3.18135
C -3.17161 -4.68457 -1.22016
C -5.42681 -2.05098 -0.40215
C 5.35733 2.61439 -3.39996
C 5.83310 0.34165 -3.09350
C 0.06812 -5.19446 -1.28224
C 0.31068 -2.94851 -5.35704
C -2.18371 -4.84821 -2.07603
C 2.10664 -3.84566 -3.77921
C -0.04771 1.56232 2.42090
C 0.94639 3.77779 -3.06227
C -1.15550 3.08711 5.57871
C -3.20086 2.91984 -0.03767
C -1.87634 2.32038 -2.72612
C -4.30865 -3.82464 -1.81501
C 2.27081 3.17010 4.15435
C -3.64620 -3.30610 -2.96366
C 0.06903 0.85773 -5.74318
C -0.58182 0.89993 6.16591
C -1.22138 -1.69629 -1.03519
C 1.19901 2.30856 4.98011
C -3.53123 -1.95264 -3.78610
C 0.43234 0.89880 1.31787
C 4.62873 -0.90619 0.55708
C -5.55863 -0.91469 1.73048
C 3.36148 3.62972 -3.55220
C 3.35298 3.94928 -0.36119
C 2.43230 -4.32292 -1.45946
C 5.45851 2.54765 -0.65193
C 3.02197 2.63423 3.20597
C 4.52296 3.41512 -2.59425
C 0.08341 -4.70516 0.04581
C 1.84322 -3.10968 -4.92116
C -3.30027 -2.02008 4.48402
C 3.00529 0.28785 -5.32126
C -3.68566 -0.75341 -2.98954
C 4.56783 1.79413 -4.36278
C -1.72725 4.53259 1.80770
C -1.76158 -2.31900 4.36712
C -0.15926 -4.88564 -3.70717
C -0.99619 -1.35335 4.72599
C 3.90779 -1.62891 -4.43401
C -4.16903 1.70200 5.71491
C 5.20846 1.16880 1.25424
C -2.11366 3.63442 -0.55081
C 1.96140 4.64494 2.36165
C 2.47765 1.50778 -5.27715
C 5.91951 -0.52919 -1.93571
C 3.97645 -2.37355 -2.99542
C 0.05208 4.22468 -2.00212
C -4.88051 1.34986 0.78200
C -4.36522 -4.11576 0.41858
C 2.43824 0.21154 3.85456
C -2.26077 -4.27442 1.25723
C 1.78975 4.53564 3.75612
C -5.35425 -2.10360 0.97285
C -5.19644 -0.53754 -0.68776
C -2.80424 1.24874 5.85031
C 4.65093 0.51774 2.40138
C -1.07935 4.14629 0.58435
C 4.40484 -1.91751 -0.14713
C -5.10174 -3.43155 -0.73396
C 6.43207 1.58580 -1.37946
C 1.46847 -2.96289 1.47028
C -1.70527 4.09153 4.79364
C 2.07835 -0.82486 -5.60142
C -4.04518 1.35003 -1.62095
C 2.42738 4.09671 -2.73596
