160
C160 4000 K last frame of liquid_carbon.lammpstrj
C 2.00942 -0.63299 -0.66568
C 15.74875 10.92392 8.76063
C 3.23726 -0.29733 -0.11371
C 13.49703 -13.77880 -2.29314
C -21.29060 -17.90092 14.76720
C -4.16860 17.05066 -10.97614
C -9.88224 -3.09498 1.14242
C -10.94452 -3.78384 1.35001
C -11.36970 -18.02910 18.82767
C -13.18758 -12.95812 17.89849
C 4.49071 5.82439 -4.42882
C -0.04268 -1.88821 -1.09572
C -1.58880 17.59343 -8.28881
C -16.74330 12.22679 14.74453
C 6.85426 6.12742 0.17928
C -1.33448 -1.81318 -0.70263
C 13.05286 -13.87227 -16.29711
C -22.26502 9.35293 16.41993
C -8.70681 -2.50905 1.09092
C -21.67193 -18.77005 15.80198
C 18.18898 19.09319 -14.40544
C -18.85545 -14.60985 12.24415
C 8.61337 14.98898 -5.09148
C -0.52251 17.95979 -7.96042
C 14.94914 -16.25186 -15.98461
C -19.93372 11.96176 -13.19754
C -4.86377 17.19248 -12.18275
C -12.20659 -5.86696 -2.34725
C -15.77465 13.02410 13.71112
C -21.49033 10.19516 15.87941
C 15.70774 13.76836 3.03757
C 12.82228 12.63261 1.89690
C -12.20300 -22.51736 21.81232
C -18.59241 11.48717 -14.82035
C 17.38600 20.09275 -14.70987
C 16.20201 14.26680 5.43149
C -13.01283 -6.48524 -0.08371
C -12.98946 -5.27248 1.06349
C 16.18334 13.15094 7.87145
C 4.58178 4.89062 -3.59782
C 27.61042 -21.06193 -22.51337
C -11.92841 -5.76776 -3.81156
C -22.95613 -20.20756 17.76244
C -11.29436 -4.98157 -3.14622
C 6.25892 5.15204 -0.28071
C 1.17746 -1.46640 -0.78728
C 16.10982 -16.05004 -3.83284
C 11.90748 -12.26145 -3.13804
C -22.21310 -19.59501 16.63697
C 17.09194 21.46753 -14.92398
C 16.04575 17.46910 -17.10838
C 3.45592 19.03383 -4.88812
C -2.41382 -1.12667 -0.47932
C -20.77809 -17.19307 13.84874
C 16.94916 18.43454 -16.42428
C 2.32225 19.40650 -5.76414
C -24.56931 -20.14976 22.43932
C 18.51566 -15.84400 -3.90861
C -10.96891 -21.15193 20.08973
C -5.10094 15.82218 -14.10603
C -12.85513 -25.15261 24.14667
C 16.91750 22.79719 -14.83971
C -11.76050 -16.88436 18.57334
C 5.85994 0.07155 -0.35804
C -16.37346 13.49901 14.95422
C 15.04192 -15.40257 -3.35226
C 13.42687 -8.80744 -4.57791
C -23.69660 8.79177 18.39019
C 13.74772 -6.65727 -5.82596
C -11.73462 -16.18009 17.56230
C -11.55446 -21.85978 20.99619
C 4.57857 4.49660 -2.21132
C 0.38496 18.85357 -7.46353
C -17.51441 9.21721 -15.46772
C 13.47901 -3.83785 -5.30736
C -12.48482 -13.82960 17.26609
C 28.57858 -21.73620 -21.80023
C -23.04378 -20.70793 18.91901
C -18.19210 -13.40747 12.45169
C 14.21691 -14.77103 -2.58019
C 6.91639 0.90918 -0.54937
C -13.18213 -24.11471 23.59796
C -23.49660 -23.33093 -20.47881
C -20.49510 11.00397 15.80634
C 9.04924 9.55689 2.32331
C 12.87538 -7.76340 -5.55105
C 15.65998 9.92816 9.48372
C 13.63152 -5.27168 -5.61810
C -6.44396 -1.64088 0.03367
C 14.08841 -14.46927 -16.69957
C 28.02913 -20.26676 23.30230
C -18.68546 11.79663 -13.48059
C 8.16637 8.17247 0.58505
C 14.87615 -15.53904 -16.98111
C 13.87135 14.17777 0.09784
C 12.39095 -11.14590 -3.97578
C 4.94547 8.37279 -4.46363
C -19.29561 -15.72427 12.46848
C 7.71750 7.10049 0.05661
C 7.33767 12.59165 -4.39048
C 6.12742 12.11358 -4.48657
C -5.10398 16.65168 -13.25936
C 18.06090 18.76288 -15.63825
C -3.44877 16.99676 -10.00257
C -22.72822 -24.25140 -20.07384
C -3.87812 -1.42158 0.12885
C -18.76348 12.60010 -12.52135
C -12.23493 -15.16990 16.88621
C 11.84978 10.68157 3.15575
C -24.00349 -20.10174 21.18522
C 1.32831 18.73058 -6.35472
C 16.33580 13.82141 6.74120
C -5.70125 14.68567 -14.36859
C -18.27365 10.33655 -15.50868
C -19.97971 -16.82976 12.64311
C 7.35537 14.82364 -5.74751
C 14.66770 13.45906 2.38240
C 5.25546 4.84436 -1.19422
C 20.89770 -15.38626 -3.12884
C 16.40045 14.55252 4.10092
C -10.67094 -20.30393 19.24071
C -6.62727 13.85392 -13.98443
C 17.28156 -15.96186 -4.18332
C 7.57964 13.71125 -5.07464
C 5.70294 10.87799 -4.54614
C 10.82477 -14.47729 -16.34198
C 13.79408 13.08597 -0.58905
C -5.08783 -1.45527 0.04142
C 12.87217 -9.95218 -4.12476
C -13.77324 -6.51631 0.97290
C 11.64952 -13.63870 -15.95097
C 14.93454 9.76105 10.57552
C 14.31354 12.64528 -1.56935
C 5.18814 9.70967 -4.45449
C -24.09071 -22.61180 -21.48253
C 4.63237 7.13714 -4.24396
C 27.11486 -20.84477 -23.69773
C 21.59571 -14.39831 -3.62707
C -18.26397 11.68690 14.53258
C 19.59024 -15.44786 -3.44632
C -19.62154 11.66797 15.15634
C -13.05187 -6.06840 -1.39026
C -22.67180 8.72220 17.41102
C 15.73405 18.82090 -17.01389
C -7.46902 13.00495 -13.53326
C -11.90493 -4.60490 1.26916
C -22.92950 -20.20302 20.33534
C 4.47366 0.00914 -0.22675
C 13.71585 13.61398 1.37862
C -12.98315 -23.40836 22.43322
C 4.75387 18.62421 -4.78748
C -2.83167 17.56691 -8.80810
C 9.20844 8.81321 1.23659
C 12.25651 11.72182 2.35780
C 12.35175 -13.02245 -2.17287
C 15.82923 12.26935 8.73181
C 16.81724 22.31848 -16.00797
C -10.73634 -19.16630 18.61062
C -7.57811 -2.00157 0.33864
C 3.82950 18.32518 -3.69867
