160
C160 2000 K last frame of liquid_carbon.lammpstrj
C 0.54009 -2.44499 3.65580
C -0.76754 1.13800 3.51227
C -0.92235 -2.07810 0.87660
C -0.69647 -2.54499 -1.55887
C 1.66461 0.25111 -0.11585
C -0.33385 0.90137 -1.55598
C -2.59333 -0.60037 3.19196
C -2.26291 -5.39167 -1.46727
C -0.18926 6.43625 6.08019
C 0.38544 -1.75297 0.93232
C 7.00875 -2.02093 3.38468
C -4.93254 -1.32265 -1.31652
C 1.06489 -0.89368 -2.15891
C 4.00067 -4.15448 1.13611
C 1.62205 -2.73402 -4.81587
C -0.44685 3.42806 1.90941
C -2.61734 2.88134 2.70122
C 1.10265 -2.23456 -0.09938
C -0.07129 1.89210 -5.24078
C -2.07163 -0.58876 -0.68241
C 3.81538 -0.02551 -3.34643
C 2.55054 -3.26230 2.83175
C 6.32261 -1.25453 -1.47652
C 0.09250 -5.45328 -1.22738
C -0.45791 -5.21681 1.39161
C -1.90452 -3.24599 -4.95672
C 2.62166 -1.75468 0.04725
C 0.38496 -2.28708 -5.50190
C -3.38818 -4.15496 -3.20012
C -1.19592 -1.67746 -2.73008
C -4.24951 1.61895 -3.55306
C -1.23170 -0.17177 -5.99628
C 1.93039 -2.12879 3.27928
C -2.58798 2.98978 -2.95590
C -2.39991 10.25180 9.80639
C -2.21820 2.58503 -4.34176
C -2.71932 -2.08927 -5.07341
C -4.59929 8.71819 7.21199
C -2.25189 3.44395 0.17912
C -0.09931 -1.06560 -6.10729
C -1.99676 -5.15227 -0.07799
C -4.38057 -0.74523 1.03355
C 0.12651 3.62223 -0.44199
C 3.40480 -3.85502 -2.41147
C 3.62741 -1.54233 -3.60263
C -0.01156 -0.80881 -3.17012
C 5.42327 0.53384 -0.22151
C 4.29168 1.70023 -1.70576
C 2.84187 -0.51272 0.08148
C -0.26530 7.94889 8.14898
C -3.91427 2.23440 -0.87765
C 1.50280 0.31331 3.56559
C -2.11147 -0.61106 -1.98170
C -3.26075 -2.67830 2.19989
C -2.46093 -0.63074 -5.47474
C 0.13470 4.88649 4.14173
C -0.75614 2.61065 -4.32567
C 2.86192 2.82187 0.28992
C -3.50102 0.24919 -5.12100
C 1.15527 0.50218 -1.33053
C -2.59050 6.12951 5.00064
C -1.13042 9.77747 9.54222
C 3.53774 1.27773 1.58872
C -0.08808 3.78330 3.30222
C 3.73094 -0.66090 2.77293
C 2.46904 -0.62101 -5.52169
C -2.73750 3.96645 3.67660
C -3.51920 -3.55791 1.26269
C -2.58376 -4.49522 0.96023
C -0.54150 0.71672 0.78708
C -1.76896 3.41004 1.49675
C -1.09699 -4.88179 -3.45445
C -3.43947 -1.19688 2.02711
C -4.34737 -3.62299 -1.15273
C -3.35578 10.22613 8.92865
C -2.38809 -2.86471 3.30917
C -3.44882 1.60778 1.14943
C -4.40351 -0.51165 -4.31631
C 3.80709 -3.18513 2.38358
C 5.27787 -0.05936 1.04975
C -1.25442 3.72341 -0.82744
C 5.86064 -1.83954 2.48063
C -0.35412 -1.42602 4.10269
C -1.47271 -1.92291 -0.29135
C 5.59658 -3.10064 -0.87888
C 2.82390 1.05987 -3.74209
C -0.01696 -3.64438 3.16099
C -2.26596 -4.36977 -3.96257
C -1.06266 1.33072 -6.00387
C 1.88916 -4.46613 2.10256
C 4.43467 -1.90548 2.60908
C -1.20475 0.57667 -0.28082
C 1.95338 -4.17004 -2.76013
C -0.50257 -5.41440 0.07057
C -4.84827 -0.07161 -1.76913
C 3.30389 2.56894 -1.97015
C 4.72114 0.38983 -2.19191
C 2.37450 -4.86912 -0.41948
C -0.17476 -4.16811 -4.21684
C -1.07314 -5.46804 -2.09426
C 4.33264 -2.67017 -2.85730
C 0.63351 -0.14257 0.80414
C -0.28963 3.20539 -3.10050
C -0.60508 7.14201 7.15082
C -3.44936 2.76653 0.20260
C -1.37571 3.55362 -2.12068
C -3.32161 -4.45324 -1.82100
C -1.11416 0.58565 -2.80259
C -4.20084 -2.87209 -3.31403
C 1.10746 1.15933 -5.73077
C -0.07552 5.58375 5.13663
C -0.61679 -3.32759 -5.27437
C 2.29230 2.08600 2.24181
C -3.98459 -1.81035 -4.45491
C 0.02154 2.36338 3.21720
C 5.92272 -1.33511 1.15563
C -4.78019 -1.75767 -0.00745
C 1.24088 3.59116 -1.38614
C 1.90921 2.99807 1.26616
C 3.63201 -4.59383 -1.20011
C 4.08832 2.12065 0.60425
C 1.37494 1.61826 3.10811
C 2.58315 3.33593 -1.00492
C 2.68091 -4.65714 0.93745
C 1.20970 -3.87079 -3.96016
C -1.77153 -1.59313 3.78970
C 2.36979 0.72715 -4.99843
C -3.29450 1.56366 -4.63224
C 2.46171 2.26311 -3.12991
C -3.11273 1.62013 2.45438
C -1.45736 -3.82079 3.14436
C 1.42157 -4.95200 -1.48465
C 0.11635 0.04390 3.92927
C 2.74379 -1.82543 -4.78207
C -4.20988 0.69870 0.62976
C 4.33574 0.32475 2.04941
C -4.60094 9.42502 8.33727
C -2.69830 5.05146 4.23279
C 0.69383 -2.06831 -1.42646
C 5.72385 -0.01348 -1.32748
C 5.55000 -2.41098 -2.12490
C -4.07277 7.76542 6.41329
C -4.58982 0.84233 -0.69423
C -1.61859 -4.87190 2.06904
C 8.04680 -2.24173 4.20568
C 0.60078 -4.64661 2.06369
C 0.58126 3.32459 0.94055
C -4.43752 -3.23754 0.25522
C -4.83131 0.30176 -3.27467
C -2.24409 0.79276 3.41532
C 2.34530 -0.86405 3.24987
C -3.33535 6.89116 5.82881
C 6.32796 -1.90093 -0.12403
C -4.70148 -2.62712 -2.07025
C 4.85509 1.76563 -0.36579
C 4.73547 -4.10068 -0.24050
C -0.24503 9.01101 8.89031
C 1.06372 -0.23893 -6.08729
C -3.73588 2.32242 -2.37672
C 1.04837 3.13609 -2.82676
