160
C160 1000 K last frame of liquid_carbon.lammpstrj
C -0.55984 -0.29968 1.70588
C -0.16086 0.86880 2.41325
C 0.07978 -1.54046 1.35910
C -0.85208 -0.87047 -3.26900
C 1.79456 -1.33020 -0.20184
C 0.72361 0.76249 -3.05131
C -1.89880 1.55216 4.19482
C -2.86755 -3.58315 0.04784
C -1.61388 1.92312 7.11210
C 2.12787 -0.44454 0.92312
C 4.07409 -2.62467 4.49519
C -4.39175 0.43127 -0.29499
C 1.56921 0.52555 -1.90544
C 1.97557 -2.59445 2.26389
C 1.95504 -2.92140 -5.28025
C 1.17687 3.08031 1.72203
C 0.60843 3.62972 4.69759
C 1.09302 -1.77901 -2.52709
C -0.61508 1.61499 -5.62222
C -3.88887 0.29106 2.14122
C 3.76292 0.17245 -4.04204
C 0.80420 -3.50096 4.46386
C 4.88119 -1.63955 -1.43615
C -1.05079 -4.91692 -0.70739
C -1.34699 -4.79099 1.60594
C -1.58602 -3.38904 -4.69946
C 4.05147 -3.21198 1.26739
C 0.75800 -2.79322 -5.82302
C -2.73451 -3.75224 -2.32586
C -0.98882 0.75089 -1.61540
C -3.62818 1.51072 -3.26055
C -0.98737 -0.85689 -6.17029
C 0.20143 -2.02960 3.83986
C -1.91318 3.26063 -2.96147
C -2.70392 4.59799 3.48783
C -1.37180 3.01877 -4.22941
C -2.43686 -2.29542 -4.91149
C -1.96425 4.79884 -1.02845
C 0.49228 4.35676 1.61107
C 0.26624 -1.54752 -6.13783
C -2.47451 -3.91817 1.36289
C -4.02374 2.71909 3.04966
C 0.15143 4.36179 -2.16389
C 2.23733 -4.37891 -0.96749
C 2.26188 -2.84883 -3.00580
C -0.29134 -1.87789 -2.38351
C 4.63119 0.63244 -0.34173
C 4.04623 1.83387 -2.30833
C 4.85146 -2.06719 2.17689
C -2.93167 4.12570 6.66751
C -3.43562 2.80668 -1.20727
C 2.18161 -0.52989 3.49836
C -1.33870 0.18277 0.62863
C -1.54768 0.22004 4.75214
C -2.18644 -1.07870 -5.59399
C -0.51540 0.12833 5.73212
C -0.12129 2.73818 -4.80780
C 2.93251 3.80485 0.08591
C -3.23033 -0.10770 -5.07400
C -0.27455 1.66007 -0.74921
C -0.75283 4.75799 2.27860
C -3.58390 4.91221 4.67487
C 3.92388 2.66524 1.46653
C 0.90511 0.14566 5.22876
C 3.77276 1.34639 3.29184
C 3.02817 -1.02753 -4.57914
C -0.64470 4.01565 4.65738
C -3.26984 -0.73571 3.01479
C -2.62141 -3.07669 2.47213
C 1.50323 0.87356 0.66382
C 1.24863 2.50877 4.96861
C -0.69882 -4.80901 -3.14419
C -2.47547 2.53786 4.89695
C -3.96197 -1.64564 0.92467
C -3.06001 4.86355 1.83551
C -3.44107 3.33068 4.09739
C -4.07266 2.59177 0.93066
C -3.79903 -0.65759 -4.01530
C 1.84178 -3.54203 5.30748
C 4.83622 0.26004 1.09916
C 0.07090 4.69130 0.27051
C 3.05004 -3.25107 5.26250
C 0.57731 -2.28392 2.34138
C 0.26020 -1.91970 -0.02623
C 4.70515 -3.03722 -0.00024
C 2.83930 1.10976 -4.74871
C -1.64094 -3.29294 3.40468
C -1.89928 -4.14918 -3.47953
C -1.97013 1.93707 -5.06042
C 0.30223 -4.49437 3.51109
C 4.78664 -2.17729 3.59179
C -0.68315 -1.71441 -1.05995
C 1.11842 -4.60827 -1.94523
C -0.35471 -5.05591 0.60938
C -4.17101 -0.33872 -1.60871
C 3.22223 2.73850 -3.06339
C 4.22302 0.49437 -2.70864
C 0.95746 -4.94719 1.13194
C 0.32736 -4.39346 -3.98568
C -2.24762 -4.21752 -1.01851
C 3.04320 -3.37733 -1.78882
C 1.14954 1.24163 -0.71071
C 1.16478 3.07732 -4.29802
C -2.46890 2.91465 6.27634
C -3.11151 4.05468 -0.62573
C -1.31303 4.33607 -2.14464
C -3.62118 -2.43114 -0.20462
C -0.57037 0.38132 -2.95965
C -3.40150 -2.56836 -2.58335
C -0.10412 0.46565 -6.31724
C -1.02464 0.91522 6.74510
C -0.20027 -3.64016 -5.04138
C 1.75670 1.20088 4.83203
C -3.41375 -2.00960 -3.88391
C 0.94425 1.63007 1.70674
C 5.25829 -1.08699 1.22953
C -4.19427 -0.27187 0.84456
C 2.40214 3.64571 -2.44116
C 2.59952 3.40218 1.39706
C 2.11231 -4.44618 0.45489
C 4.12874 2.99475 0.10666
C 2.76796 0.76528 3.93504
C 2.22573 4.19623 -1.04915
C 0.96826 -5.04537 2.44796
C 1.39200 -3.99742 -3.21483
C -2.21457 -0.88705 4.02536
C 2.28022 -0.15075 -5.33485
C -3.13701 1.22810 -4.74753
C 2.51401 2.38241 -4.26487
C -1.33047 2.35573 1.70390
C -1.32132 -2.05409 4.04418
C -0.19273 -5.08462 -1.81764
C -1.25127 1.72521 2.90083
C 2.79048 -2.35734 -4.32535
C -4.10069 1.68317 2.22448
C 4.22778 1.26580 1.94476
C -3.70925 4.00415 0.85595
C -1.21111 4.43313 3.59013
C 1.88937 -0.86523 -1.52545
C 4.71643 -0.22139 -1.55101
C 4.24548 -2.97584 -1.34674
C -1.23635 5.20632 0.16104
C -4.10170 1.89162 -0.37440
C -1.33298 -0.48871 -0.69878
C 1.12136 -0.87181 4.32396
C -0.87967 -4.23533 2.89891
C 0.78709 4.49510 -0.89894
C -3.38407 -1.90003 2.28641
C -4.00256 0.18069 -2.87217
C -1.15715 1.71232 0.46286
C 2.45759 -1.22020 2.20587
C -1.71966 5.17188 1.47920
C 5.30958 -1.77484 -0.05740
C -3.70604 -1.78746 -1.44433
C 4.38868 1.93076 -0.82167
C 2.79887 -3.62208 1.53241
C -3.10113 5.17637 5.87955
C 1.05179 -0.29289 -6.14601
C -3.01012 2.51856 -2.63490
C 1.12302 3.83538 -3.06109
