160
C160 5000 K last frame of liquid_carbon.lammpstrj
C 2.66898 -2.09093 -1.84929
C -3.30268 -4.90211 -11.48153
C 15.62041 -10.97291 17.20753
C 11.34370 22.02837 20.94545
C 2.16348 0.60501 1.95208
C 15.46427 14.41520 14.32641
C 5.66711 24.42655 -3.83669
C 3.19213 2.79813 18.63492
C 25.10316 7.13950 -23.51346
C -11.23329 3.48025 -1.01765
C 25.05594 7.36912 -19.79042
C -13.33780 -9.42203 -2.69222
C 3.98324 2.93411 12.68580
C -10.18347 4.47446 -0.71102
C -22.35368 10.23971 -24.50825
C 11.07616 23.29644 21.23383
C 9.95714 -26.88071 22.48932
C -22.65298 21.23407 0.33254
C -18.50813 -6.79930 8.89244
C 22.31633 -10.65356 -7.36871
C 2.65390 -0.51754 2.80410
C -0.98935 13.56297 -5.28752
C -9.99384 15.42234 -2.21560
C 18.76907 -5.51697 -4.44235
C -2.69039 -9.98069 -5.71275
C 19.69162 -6.37187 -4.35272
C 11.06985 -27.33023 -15.41312
C 4.74772 24.57992 -3.00938
C -19.79421 -14.14051 -25.16605
C 7.06297 23.60349 -13.71454
C 2.34038 13.96173 -7.57459
C -21.33092 -12.49102 18.13341
C -3.06872 -5.37339 -12.69739
C 2.20118 -0.29294 -0.10852
C 7.91344 24.56863 -14.00373
C 3.40565 4.26543 12.61660
C 29.24868 -11.92311 19.92543
C -13.41229 -10.19726 -3.74418
C -3.95999 -5.21328 -10.25257
C -19.97340 -13.38437 19.64426
C 1.77916 3.66378 18.26463
C 1.76001 0.64555 0.74938
C -21.54300 10.36586 -25.61353
C 13.90948 14.36611 16.52174
C -8.88397 14.69664 -2.70997
C -20.35051 -11.92060 17.80631
C -20.84617 -12.42572 -26.70051
C 4.51579 -2.66044 4.78813
C 24.86154 7.08297 10.23520
C -6.53476 -5.21088 -10.56438
C -23.83467 21.94451 1.53605
C -9.04808 4.12987 -1.02546
C 24.88520 7.42559 -22.16701
C 0.71602 7.29939 18.13710
C 24.38108 7.95055 11.02711
C -21.15231 11.00365 -27.95402
C -6.72839 3.36331 -1.59144
C 0.52442 -4.99762 -4.95737
C -20.46778 -14.52793 19.90671
C 2.51834 3.08518 10.26654
C 11.59877 20.79241 20.65910
C -9.12193 -4.60463 -10.96582
C -23.16885 -12.95603 19.46488
C -17.66858 -4.54527 9.25009
C 6.15202 22.60063 -14.12688
C 2.92743 -0.93042 -0.95754
C 24.61047 6.92110 -24.77092
C 2.80251 12.75330 -7.97213
C -5.70125 12.55363 -1.61480
C -9.86449 21.93493 -4.52935
C 1.27591 6.19957 18.87417
C -0.13423 13.65644 -6.28467
C 16.72665 -5.54584 -5.54142
C 29.04242 22.28985 2.70448
C 1.09484 4.66457 18.50827
C -3.50524 -10.09887 -6.98690
C 17.46391 -5.28852 -4.39310
C -19.77870 -12.22006 19.10727
C -4.31448 11.96080 -1.85068
C 0.43608 7.04367 16.91206
C -4.70650 -10.19138 -2.34046
C 21.79551 -9.25043 -5.17683
C 18.28726 -11.04104 19.99759
C -2.88375 -5.60226 -14.19523
C -12.90919 -10.80843 -5.11549
C 0.71041 5.89936 14.78453
C 21.89266 -9.73149 -6.42445
C -17.01672 -16.02117 -25.38214
C 18.05786 -10.71682 21.16448
C -23.25564 10.61163 -23.49228
C 1.82632 -2.38691 -2.69543
C -11.75178 22.88902 -5.86382
C 2.28471 -28.63966 -2.12939
C 16.57414 -11.36489 17.85898
C -7.74543 3.65442 -1.03647
C -10.33304 -3.79801 -11.30875
C -11.19789 -2.88755 -11.57361
C 20.63762 -7.28079 -4.59395
C 3.59827 -28.65347 -2.12330
C 14.51631 14.36060 15.30741
C -2.22911 11.96898 -3.37654
C -17.69382 -5.80557 8.77239
C 12.19005 -27.16046 -14.65554
C 3.16710 -1.34907 3.48511
C 2.93090 4.28019 10.17611
C -3.46893 11.51295 -2.67324
C 0.98222 14.02954 -6.61183
C 0.74239 -3.79951 -4.22786
C -6.64722 13.28516 -2.05287
C 16.13703 13.64885 13.55311
C 1.14521 -28.72966 -2.40613
C -18.96684 -14.78627 -24.36259
C -24.05365 -13.35918 20.17879
C -20.46414 -8.22227 8.51758
C 2.81759 1.96771 13.01307
C -3.20974 -6.81363 -14.88719
C -1.62367 12.61469 -4.34706
C 1.29387 -3.12236 -3.52771
C 3.12956 1.42735 14.23171
C -22.54106 20.03296 0.44708
C 10.16773 -28.19572 22.59787
C 1.18478 5.29284 13.90129
C -5.47467 -9.53166 -1.56598
C 3.52522 5.14279 11.09668
C 4.71125 -27.94892 -1.68299
C -19.37849 -7.71597 8.95533
C -5.25163 -5.29761 -10.21567
C 18.64303 -9.53396 21.77992
C -12.55760 22.67023 -6.75653
C 13.00110 15.40218 17.11108
C 0.21255 6.57282 15.73849
C -19.82538 -12.77796 -27.21350
C 18.99907 -8.52461 22.05441
C -17.98488 -3.24594 8.62940
C 21.76411 -7.89179 -4.54721
C -4.16020 -10.18464 -3.49557
C 18.44774 -11.90782 17.31439
C -17.87836 -15.39540 -24.84418
C -16.14186 -15.37236 -24.86525
C -7.77057 -4.77083 -10.63187
C 23.62213 8.70663 11.97341
C 24.74830 5.82840 -25.44503
C -21.84000 -13.56110 18.61011
C -3.36252 -8.07366 -14.43132
C -10.92490 22.77338 -4.68229
C -19.76784 -8.94685 9.61692
C 9.93950 -27.68690 -14.67586
C 1.99643 4.52505 13.11692
C -0.91411 12.36128 -3.12617
C -3.45016 -9.84133 -4.44903
C -12.31546 3.21555 -1.15963
C 10.36981 23.95474 22.09692
C 8.87834 -27.95818 -14.15512
C -20.74146 -13.58110 -26.20662
C 17.97289 -11.46868 18.59842
C 23.16124 9.64074 12.77810
C -7.77886 14.07991 -2.29019
C -21.12466 11.04761 -26.56881
C 24.57206 7.43275 -20.97906
C 3.44138 -2.30676 4.30926
