373
C373 5000 K last frame of liquid_carbon.lammpstrj
C 1.56493 -2.97229 2.49648
C 8.73159 -3.98926 4.41400
C -25.33738 -23.15045 25.59739
C -13.09494 7.29448 18.79975
C 2.94589 6.41923 -19.48601
C 5.52825 -6.74100 3.86171
C 6.96957 -13.95812 22.00321
C -22.05170 20.70527 -6.75840
C 0.30584 -11.37212 31.70322
C -31.81935 -22.24146 31.34629
C -23.12063 2.35701 -15.16437
C 4.22130 23.28393 11.39560
C 4.50908 -10.47534 24.31648
C -2.19076 -9.31618 23.37202
C -7.02430 22.40972 -22.30487
C 24.04046 9.67737 -23.91320
C 4.08485 24.46588 -22.20355
C -7.54992 22.13201 -23.49852
C 23.08639 10.54582 -23.84324
C 6.27868 -4.91411 -17.51224
C 2.12069 -9.75355 25.02617
C -6.92483 -11.00575 -3.05798
C -23.64486 9.44584 17.00583
C -3.78925 14.15266 -1.57476
C -16.19956 5.82585 16.00741
C 14.19665 3.25043 -20.33314
C 13.86871 2.00552 2.79803
C 5.66418 -16.10502 -7.39663
C 1.62870 -4.27767 5.57414
C 7.44837 7.34280 -8.96618
C 12.14951 16.06299 -24.65154
C -0.44124 -11.31778 19.97904
C 29.44515 -15.90133 -4.62163
C -8.62944 8.85078 21.51417
C -5.93690 15.29347 16.38958
C -22.29677 1.90975 -21.50375
C 4.89471 -3.57475 1.03156
C 2.57467 -11.68160 29.30852
C 21.17367 10.91530 -22.66493
C -19.89330 -26.68885 -9.05003
C -7.39865 -26.30351 -16.41223
C -30.41640 -22.99977 29.17149
C 9.70262 -29.63804 -23.48243
C 23.63480 23.10176 -7.25740
C -23.29053 5.04110 -17.66288
C 14.66543 5.02837 27.88213
C 12.56245 0.64568 6.05780
C 15.88385 0.67178 31.18512
C -20.28909 -27.65044 -11.98504
C 6.59580 22.45138 10.68093
C 7.88909 20.66986 -19.59671
C -1.90900 -14.30059 15.27015
C -10.83913 13.21930 15.66285
C 8.52616 -28.67303 -23.17145
C -6.00519 -28.42240 -15.52141
C 5.27548 22.89986 11.01656
C -7.86744 1.54662 -2.36535
C -13.50945 6.54619 24.78735
C -7.14270 21.85986 -24.61728
C 18.44236 23.44121 29.89015
C -21.80188 15.73325 -8.37309
C 8.70474 -12.32873 23.02631
C 29.08296 -16.03437 -3.43221
C 30.05485 -15.58265 -9.23191
C 26.12521 23.20627 -6.63954
C -8.44155 2.07959 -3.45796
C 1.42564 -11.49798 29.81545
C 14.46463 26.43039 29.00003
C 11.46533 -20.91542 -13.03187
C -24.08361 9.88255 18.27697
C 4.64409 -12.45674 -25.84963
C -3.06509 0.45529 -23.41154
C -4.90928 23.02318 -21.11788
C -24.03917 -23.19015 25.64768
C -19.92027 -27.20804 -10.30357
C 5.30210 21.19339 20.86506
C -15.11687 -27.65646 -8.75479
C -3.62994 19.13798 0.61826
C 0.26759 -1.09956 5.59375
C -3.92865 15.44829 -1.00887
C -12.75335 8.04051 19.72795
C 3.24871 21.80054 -23.70175
C -4.62313 -12.07724 -1.81034
C -0.18436 9.33664 9.79306
C -5.98563 8.41179 22.42292
C 2.36339 9.07386 12.13313
C -15.79794 7.15369 15.39116
C 17.52284 22.60745 30.03615
C -1.79217 15.62909 -2.56222
C 6.14426 -6.14623 2.83374
C 2.04824 7.39789 -19.66169
C 1.43287 -0.52343 2.86047
C 14.56231 2.55735 -19.29007
C 24.76363 9.65353 -26.30992
C -5.72274 -11.63843 -2.48393
C 3.75228 -3.40421 1.44306
C -4.19791 -1.13261 -27.05416
C 1.75150 -5.30448 4.77162
C 7.27639 -6.94984 -18.76723
C 0.69205 -3.29629 5.93309
C -5.08457 14.84133 18.45301
C -14.12540 7.03164 23.52965
C 13.49679 1.78545 3.97409
C 19.97708 11.56844 -22.62396
C 0.30312 -11.76955 28.89100
C 5.34475 -14.19827 -29.12074
C 2.78606 -3.38130 2.37103
C 19.70753 2.72597 -20.68370
C 15.01687 1.04936 32.49219
C 3.18957 -10.23067 24.48829
C 2.25095 -6.50854 4.50283
C 4.55011 -7.60462 3.84683
C 10.60756 -32.05194 -23.93878
C -14.53925 7.10531 24.65947
C -18.77181 -27.26990 -10.95296
C 15.26535 1.89864 29.08689
C 5.75810 -15.75290 -30.57097
C 9.77217 -10.77289 -20.11949
C -4.25173 22.58876 -20.13691
C -14.11475 -28.58478 -8.36094
C 17.71375 2.97764 1.07224
C 17.29224 3.72767 -20.95649
C -3.74591 17.89630 -0.07847
C 27.36231 24.44881 -7.33367
C -10.91274 15.95020 10.57573
C -2.75035 -2.60274 -0.90974
C -18.77341 -26.76529 -8.35579
C -8.32454 9.60833 18.24815
C -14.60579 -28.71811 -9.62518
C -0.84574 -7.13496 22.56910
C -4.44559 -1.40470 -28.28472
C 6.96442 20.03869 -20.60245
C -21.87213 2.12282 -19.95960
C 26.92101 -6.77080 -9.96568
C 15.02636 0.94792 29.89820
C -11.68297 16.42171 11.71086
C 8.62384 -9.11017 -18.92388
C -22.00691 17.10143 -8.33531
C -11.91716 9.20007 19.64619
C -10.88931 13.90348 14.37757
C -20.87507 3.52299 -19.44012
C 15.05928 3.90457 27.68573
C 4.20533 -11.30331 27.19165
C -15.80581 6.36159 17.12537
C -14.07864 7.07169 22.31066
C -21.72827 15.16549 -7.04427
C 3.06498 22.94332 -23.25987
C 12.67136 16.79172 -23.68126
C -23.33451 19.59826 -8.43276
C -2.95572 -30.56097 -16.72217
C -14.97958 5.68361 18.16043
C 0.63765 -4.98199 23.92454
C -26.36327 -23.09027 26.30280
C -5.48472 14.42013 13.74161
C 3.72115 -12.02134 -25.06327
C 28.96450 -15.48867 -8.19932
C -10.35293 12.50216 16.54605
C 7.88747 8.31163 -8.27408
C -24.84377 9.67401 20.49430
C -4.76814 -13.42157 19.30841
C -2.26981 -12.91523 17.48586
C -23.09106 1.53980 -16.16080
C -22.92840 1.19699 -20.56478
C 15.64120 0.11815 -18.30023
C -4.50195 -1.38451 -25.87793
C -23.80411 15.61549 -4.45306
C 17.13790 23.97667 30.25409
C -1.05412 -13.33830 15.09357
C 11.35614 -33.01035 -24.67989
C 8.00211 20.62628 20.53654
C 3.14669 -11.30053 28.26696
C 9.62918 -9.63631 -19.47802
C 11.78147 1.16799 6.95342
C -6.59631 -27.22199 -15.96399
C -31.18622 -22.47114 30.13042
C 18.76081 2.71909 0.36833
C -8.36765 -25.52333 -16.61691
C 6.97235 19.98968 18.19162
C 16.18025 3.77767 -21.55687
C 0.09601 -6.43540 23.15860
C -22.42847 4.20485 -16.88027
C -10.86500 9.48912 19.21964
C -9.45742 -25.27867 -17.22019
C 5.72575 -27.20561 -20.81477
C 13.82137 18.87010 -22.34347
C 21.89847 10.86503 -23.78294
C 6.62468 -16.81813 -7.72185
C 4.35579 21.13170 -19.96029
C -4.75894 13.14276 -3.68457
C 3.92473 22.07431 -20.68254
C -2.54428 -10.57111 20.89857
C -5.91219 22.93533 -21.69876
C 10.15601 -21.27026 -13.93479
C -5.71909 13.10411 -2.95821
C 6.89313 -5.90243 -18.11789
C -4.99157 -1.96411 -1.74293
C 26.53775 -4.44428 -8.76856
C 4.75762 22.60224 21.45115
C 9.35958 -20.91796 -14.69639
C -1.37141 -11.54086 24.43540
C -4.82387 -1.16495 -24.58233
C 4.99587 19.88378 -17.54691
C 13.01053 17.75921 -23.02325
C 3.71386 23.07225 -21.94123
C 0.06979 -11.42009 27.78740
C 15.40238 25.65108 29.52663
C 4.49646 -12.35813 26.43526
C -9.49891 9.83255 18.96294
C -4.83105 8.20335 22.05211
C -29.59959 -23.56786 28.38489
C 0.82063 0.05103 5.29573
C -5.55874 14.15100 19.36477
C -27.36612 -23.23980 27.29651
C 0.03044 -2.26219 6.24500
C 3.58036 -16.34309 -6.92061
C -15.39678 8.47244 15.40364
C 6.66379 -16.65419 -30.98681
C 24.93724 22.84101 -6.33747
C 1.21020 8.25792 -19.13342
C -2.81475 16.47981 -2.13006
C 15.39220 1.53852 -18.03664
C -6.82090 -0.42071 -1.29509
C 0.18611 -11.54734 19.01896
C -0.65541 -11.29440 25.62748
C 6.95169 -4.09053 -17.09750
C -28.52174 -23.33158 27.58880
C 10.02465 -27.48621 -23.31432
C -7.19646 0.62658 -1.87359
C -9.77650 9.32709 21.77064
C -11.08073 14.55188 13.31919
C 7.66254 -17.68575 -8.11691
C 2.11994 8.87833 10.70014
C 5.80608 -14.51244 -30.28198
C 4.92775 19.34520 -16.29696
C -3.94520 -29.91499 -16.27543
C -4.59605 18.31422 1.00343
C -23.27630 6.20396 -18.35260
C 8.00500 -8.19759 -18.63390
C 0.59998 -11.15014 26.46952
C 8.05934 20.25072 10.93404
C 25.17907 9.46632 -28.69466
C 2.88513 23.52107 10.66988
C -3.72218 -2.34801 -1.73378
C 15.57466 3.10611 28.72741
C -22.92151 14.46934 -4.98839
C -7.49072 10.71336 17.53353
C 13.97183 20.10298 -21.80790
C -1.41909 -10.42592 20.52271
C -22.84698 3.03846 -16.20547
C -10.30686 1.62191 -4.44953
C 6.66975 20.94143 -19.50354
C -3.34268 -13.56300 18.01968
C 0.21649 -11.49601 17.53835
C 2.66940 -16.96506 -6.35813
C 0.08478 8.66109 -19.52408
C -22.59542 14.73246 -6.32312
C 0.07784 9.84865 -18.91687
C -6.63421 15.01187 13.95700
C -17.45389 -27.22893 -8.10950
C -6.13001 -1.27762 -1.90438
C -9.08608 11.87430 16.61676
C -2.79004 -17.10846 16.80958
C -20.38001 -28.90195 -12.20430
C 29.64596 -16.52827 -5.82499
C 7.00250 -5.24123 3.02829
C -3.07284 -16.60963 15.73506
C -17.59162 -27.00631 -11.04081
C 4.62782 -12.88884 -27.11827
C 7.61717 -17.68679 -31.47238
C 7.80675 -4.55162 3.90673
C 7.10602 20.28127 19.56604
C 0.98984 9.10008 10.17377
C 2.56327 9.62772 13.21559
C -21.37609 -30.10445 -12.46228
C 10.01615 -30.82445 -23.72837
C -13.79382 7.20409 21.06708
C -5.97423 15.15677 17.68168
C 0.85448 0.34083 4.01124
C 1.93042 23.56077 9.80076
C 13.71842 1.73036 31.90089
C -1.87781 16.67760 -5.22316
C 0.49292 -10.75137 16.53056
C -23.08852 18.88613 -9.76493
C -3.42914 -2.13962 -33.03256
C 29.23602 -16.01012 -7.08628
C 23.70326 22.79465 -5.90126
C -22.92371 18.00214 -8.58524
C -2.86886 1.33240 -22.53808
C 8.06964 11.01882 -8.11072
C -4.27100 -1.47981 -29.64647
C -3.05496 -8.42206 23.35668
C -9.51390 2.65607 -4.03982
C -23.04350 8.82642 15.98587
C -11.78447 15.64547 12.82189
C 7.65247 -28.02444 -22.57216
C 4.36840 25.57076 -21.03461
C 1.03856 -1.67628 2.28602
C 7.20845 -18.84201 -31.64917
C 4.01130 21.37104 21.28559
C 7.83666 -13.23165 22.66065
C 3.72717 25.91391 -22.21761
C -7.94296 11.46007 16.52609
C -4.78938 -29.22289 -15.72326
C 5.34764 20.72796 -18.98458
C -4.27586 13.10355 -2.20610
C -2.78408 -2.18922 -31.65912
C 1.20325 -5.84925 22.98696
C 2.50193 5.13386 -18.93840
C -21.66421 -31.17622 -12.60828
C -7.39211 8.11563 21.32621
C 3.01666 5.06164 -20.19836
C -8.06332 -10.51741 -3.86466
C -22.98858 0.89989 -22.01177
C 10.73296 -34.27627 -24.67775
C 9.45546 -11.61146 23.93235
C 8.17895 9.81980 -8.36505
C -6.49487 20.73745 -25.28722
C 29.10593 -8.06612 -10.08223
C 5.13446 -14.47315 23.62733
C 6.35015 -27.79124 -22.05292
C -24.92386 10.14558 19.42669
C -3.74903 -14.00251 19.34689
C 7.55230 -19.11786 -14.57151
C 6.60928 6.50059 -9.50557
C -26.25297 8.46052 22.19568
C 6.11717 -14.66116 22.50440
C 7.06592 19.47124 16.95929
C 3.12777 -7.29237 4.07466
C 27.84342 -7.72146 -10.24848
C -1.82151 -13.08570 16.31897
C -22.52170 20.26472 -7.78382
C -13.83299 6.33919 18.39537
C -3.94405 16.67714 -0.91159
C 5.37808 -13.40797 26.05420
C 10.30560 -11.59248 24.91084
C 1.24463 -9.93358 26.01740
C 4.94402 -13.71739 -28.00389
C 14.00123 20.97812 -21.18351
C -3.27955 -12.62380 -2.25546
C 6.60732 20.85521 20.67647
C 14.88747 3.61373 -21.61642
C 26.72617 -5.54799 -9.36397
C -3.54603 -2.21873 -30.53561
C 5.62697 -14.12397 24.78423
C -2.12514 -10.44785 24.01782
C 4.47679 -15.71164 -7.47550
C 29.04349 -8.61268 -11.31256
C -2.73217 15.93880 -3.89180
C -6.28608 14.82807 15.19747
C 24.94250 9.41158 -25.13722
C 16.24569 2.82221 1.92209
C -0.86477 9.85477 10.75679
C 24.40329 9.63883 -27.68868
C -16.21804 -27.02315 -8.49207
C 15.26391 26.23242 28.08531
C 16.34945 24.87489 29.72332
C 12.02307 -21.76625 -12.15818
C 12.75747 1.38917 4.88036
C 18.49768 3.34441 -20.55934
C -22.67152 14.93403 -3.64319
C -2.87088 17.31027 -4.78921
C -20.73329 2.29897 -18.51741
C -15.05593 -27.62053 -10.63024
C 27.46665 23.40719 -6.47080
C 14.16326 0.28400 31.08901
C 0.66462 -10.62475 30.75395
C -2.63449 -15.56425 14.98895
C 8.54653 -20.00232 -14.30474
C 7.33686 21.39107 10.82629
C -16.37969 -27.46608 -11.05041
C 15.12734 2.46065 2.28712
C -3.88554 -0.42899 -23.94433
C -25.24630 8.93677 21.55085
