373
C373 4000 K last frame of liquid_carbon.lammpstrj
C 2.55316 -1.79282 1.55687
C -24.30089 -12.34245 4.01863
C 30.12998 22.33704 -6.26278
C 10.43571 -9.97547 14.20751
C -19.50415 12.40098 2.36141
C 15.73439 -22.33347 -18.34562
C -1.33048 19.52147 -5.71112
C -12.18947 10.21693 -9.48093
C 30.74460 21.21359 4.97175
C 11.91319 -24.80837 -1.24036
C -2.85761 -7.39305 -3.18912
C -22.09832 14.69695 7.50795
C -26.37615 17.52051 0.01642
C -14.03048 8.49599 -9.27313
C -25.71727 1.20740 13.57941
C -19.54952 -15.54538 1.79141
C -18.99879 12.22402 3.32358
C -4.77883 18.76241 -5.40893
C 0.81712 19.55816 -4.10812
C -25.82878 21.88891 5.12544
C -20.77737 9.24533 0.02209
C 25.05752 -23.94492 -16.52057
C -23.83957 -5.65788 -2.25056
C -23.64380 -19.40758 -0.46921
C -2.55259 19.52708 -6.19334
C -25.97345 -21.98609 -11.11113
C 16.23356 -23.65321 -23.94388
C -11.20091 -6.79134 -2.27284
C 29.24634 -21.93742 -15.01381
C -23.52546 14.89700 1.89678
C -17.82280 -22.83287 2.61967
C 8.44210 -15.30239 -18.51991
C -24.94907 3.10408 10.64382
C -20.00801 6.72824 0.09964
C -9.08844 -8.92407 -4.67499
C -24.82523 -11.60700 2.96850
C -22.35242 5.28426 -5.49724
C 17.00888 -23.34628 -22.98067
C -14.07480 1.16875 -1.39868
C -1.56669 1.31926 -2.94555
C 8.47173 20.97529 -2.27081
C -26.09202 -6.84690 -25.00281
C -24.25541 -19.76480 -4.27275
C 30.00180 -11.45736 -25.46425
C -20.28346 5.75704 -6.89041
C 23.94001 -2.14888 -2.12950
C 25.53284 1.09826 -3.29276
C 30.68274 -29.94219 20.40789
C 25.39141 -15.02717 18.38569
C 31.13781 -21.97226 30.16143
C 29.13587 24.00786 17.20322
C -15.72734 3.00912 -2.19049
C -25.29373 17.74961 3.37630
C -4.70893 20.19945 -7.66746
C 12.94394 -17.31312 14.28904
C -13.43178 0.14738 -1.32698
C 15.24703 -29.29117 -0.05452
C -24.01022 5.14040 -3.73169
C 7.60046 -7.61214 15.42545
C 24.34288 -15.35494 17.75175
C -13.20765 17.71506 1.92317
C 0.28161 0.07562 1.38130
C 0.45730 -0.96513 1.97630
C 8.31843 22.30098 -2.05456
C -24.81470 5.24827 -1.28092
C -21.46229 12.33988 2.61215
C -22.78903 13.95416 1.48621
C 25.33238 -20.21670 -15.43318
C -17.05634 6.64833 -2.15195
C -18.05792 -5.55760 3.08053
C -17.59868 15.80657 -2.52803
C 29.40802 13.55551 8.67455
C -0.73021 -4.00274 -2.89960
C -19.41515 13.01329 5.42286
C -26.28536 -6.02129 29.35382
C -1.13992 1.51277 -1.74456
C 29.29448 26.19047 18.83533
C 30.07611 20.35135 11.12031
C 28.99542 23.05633 -6.09548
C -24.52171 11.44130 5.71529
C 29.04067 22.93915 16.46905
C 11.67692 -26.03292 -3.61318
C 6.62932 -7.91213 14.55668
C 16.54842 -22.42172 -24.31754
C -24.10686 -7.85386 -1.91874
C -12.52828 19.00123 1.51943
C 29.33210 21.32747 5.23022
C -18.45171 -23.69129 3.32092
C -22.28205 11.85697 3.52010
C -24.42334 15.73071 1.96889
C 31.40730 17.25721 9.33941
C 28.96909 12.50312 9.01722
C -0.58467 1.26788 -0.55543
C 25.74297 -17.48694 -14.55497
C 30.00244 26.50174 20.08574
C 30.31198 -5.04842 -26.74284
C -17.90804 -11.44995 1.93932
C 9.54946 -15.54081 -18.02566
C -16.54727 5.31626 -2.11387
C -19.86270 5.49866 -0.42002
C 30.33327 14.47248 8.19455
C 31.21032 -8.02746 -24.70450
C 15.50344 -29.68473 1.16065
C -20.25528 11.90210 -0.12952
C -8.52995 -9.91853 -5.38324
C -17.72477 -15.22989 0.15918
C -22.18217 12.74084 1.47695
C -15.62526 6.76661 -8.50817
C 0.01594 1.05996 0.51744
C 29.82901 24.60540 23.54335
C -18.62890 14.03332 0.17388
C 29.41300 26.06437 21.49193
C 30.23524 -3.81149 -25.50487
C -17.57264 -12.63480 1.51040
C 17.42703 24.33221 5.41468
C 26.02040 -12.91951 21.32944
C 30.04821 -13.93144 -26.24824
C -16.76370 11.51306 -5.51917
C 26.13448 -26.22539 -16.75627
C -16.75097 16.36587 -1.23868
C -12.09040 12.44230 -8.28260
C -23.02467 -2.83416 -4.39914
C 12.98473 -14.81202 -20.33477
C -18.46809 9.85566 -1.34110
C -25.45605 1.93683 12.70062
C -21.46397 5.55306 -6.34096
C -4.70343 20.25298 -9.11920
C 10.24416 -7.59478 14.71171
C 1.79127 20.08510 -3.60901
C -18.56854 -10.33767 2.32159
C 16.38593 -22.89821 -17.34247
C -1.55535 0.23100 -3.66115
C 30.79407 -22.55349 -13.23685
C -12.77277 9.05008 -9.53724
C -23.87359 -19.96173 -1.55990
C -19.26394 -2.00925 0.00080
C -24.85006 -20.21574 -5.32381
C -26.15446 18.05451 -2.65216
C -4.94260 -6.96535 -4.81995
C 29.72682 -16.29000 -27.31157
C -19.83828 18.73938 3.27219
C -24.53815 15.64026 8.44255
C 14.76007 -29.47317 -1.20332
C -18.02360 -6.78885 3.63769
C 30.57846 22.76769 28.37064
C -23.38420 -17.99982 1.70189
C -20.43097 -22.73351 1.88434
C 30.25573 19.57743 10.06503
C -23.44705 -3.60814 -3.57898
C -25.35172 16.50741 8.85726
C 10.67742 -8.82488 14.71246
C -12.52163 -0.96479 -1.03921
C 12.62335 -29.64781 -1.61401
C 10.08989 -6.54708 15.52742
C -24.01155 -19.53536 -3.09948
C 18.02348 23.14383 4.94384
C 30.33391 15.59327 7.47468
C -11.73428 11.20167 -8.85040
C 30.82602 -21.63281 -9.56687
C 23.45005 -16.05110 17.16045
C 28.47076 22.54536 15.44507
C 31.13382 -28.73472 19.84813
C 24.92504 -1.29220 -2.51860
C 29.76171 20.89086 12.39850
C -25.75766 -5.83519 -24.25481
C -10.55892 -4.20441 -1.35106
C -18.68150 1.94013 -0.03115
C -24.87575 -9.67647 1.19571
C 10.61776 21.67844 0.21474
C -12.41694 20.34024 1.67810
C 29.73225 -15.00837 -27.14815
C -5.61873 18.11198 -4.81145
C -23.93621 -4.62882 -2.87843
C 0.96040 -9.29818 -0.99569
C 30.06251 23.53878 25.91334
C 30.70554 18.18790 4.89694
C -20.07658 8.01222 0.26757
C -18.27787 15.22951 2.34815
C 24.87806 -22.69405 -16.23552
C 30.17599 17.74423 6.04583
C -19.00580 3.26542 -0.44450
C -4.08667 19.51209 -6.54049
C 30.19034 23.19377 27.29748
C -23.42951 11.27337 3.70979
C 29.78034 10.46189 9.55906
C -22.90187 -17.05514 2.33432
C -17.98061 7.60153 -2.05184
C 29.21763 21.06070 13.38289
C 8.74492 25.32517 -0.06072
C 31.20621 1.23940 14.46097
C 22.94457 4.19773 -5.51483
C 13.92845 -18.00922 14.63370
C -19.37818 12.63020 0.85314
C 9.40757 20.34505 -1.67066
C -24.69601 22.62001 5.15140
C 29.01857 -3.92937 -26.32469
C -10.20465 -3.15671 -0.52846
C -17.75561 -15.84016 -1.22543
C -7.08470 -10.27772 -7.62187
C -15.59644 4.48094 -2.22469
C 30.32199 -22.24754 -14.37494
C -15.01881 7.69331 -9.11428
C 9.42498 -27.84650 -5.74492
C -22.06215 -16.15051 2.44451
C 29.00456 11.45855 9.80939
C 10.64843 -14.30828 12.08358
C 24.92644 -2.81292 -1.55238
C -16.95738 12.71631 -4.96214
C -24.49012 -8.88292 -1.23949
C 12.03142 27.04743 -1.65990
C 9.33737 -5.45806 16.04152
C 8.40512 -8.09638 16.36789
C -15.18072 16.30725 -1.04522
C -25.02222 -10.87578 1.96339
C 25.52847 -16.20975 -14.03213
C -11.94040 21.72225 1.44744
C -1.14785 -2.90296 -3.20063
C 10.15649 -11.16877 14.20895
C -1.94064 -7.77273 -2.26740
C 30.07431 -19.67500 29.28201
C 11.75805 -15.10148 11.80917
C 29.97246 -12.75493 -25.66256
C 12.00115 -15.73050 -18.74276
C -15.04780 2.00714 -2.03633
C 25.56513 -18.91207 -15.08227
C 1.41154 -8.47866 -1.86510
C 1.66130 -7.54577 -2.78595
C 16.75958 -23.31474 -21.50237
C 10.98389 23.84884 1.37250
C -25.75019 17.59464 1.18698
C 30.07454 23.79988 24.70771
C -0.24354 -6.60483 -3.68788
C 29.68608 -18.60517 29.99349
C -26.26997 17.74648 -1.30424
C -19.01297 -3.08472 0.63740
C -16.79367 6.05072 -8.21009
C -5.42412 -6.79435 -5.99994
C -3.55706 19.38959 -5.08129
C 23.99744 3.32983 -5.29314
C 25.46429 2.16604 -3.99823
C -5.17772 19.77927 -10.43656
C -17.81337 8.91467 -1.59416
C 25.01816 -21.47131 -15.82946
C -16.75166 14.06990 -4.35898
C -23.41215 -6.82491 -1.89687
C 12.80286 -15.85937 -19.80435
C 30.79778 18.27123 -3.54489
C -21.02527 14.47723 6.63791
C -24.60655 5.11668 -2.55870
C -6.18798 -7.25544 -6.91917
C -21.79845 -22.29540 -0.10724
C 30.27697 -10.30943 -25.13180
C -13.79496 16.42703 1.41133
C -19.36145 17.50540 3.15073
C -18.75262 16.35244 2.96902
C 29.97588 -28.57321 20.72738
C -21.43521 12.21731 0.43822
C -26.27506 5.75230 0.47479
C -25.31734 -21.15332 -7.63234
C 11.31293 22.61654 0.98681
C 9.94331 -13.17106 12.45318
C -1.04947 -2.00774 -4.53866
C -24.76297 -9.06313 0.00178
C 7.74681 23.24111 -1.32525
C 12.48551 -16.71496 13.35135
C -23.57314 -18.80830 0.65245
C -22.86744 4.56409 9.91815
C 10.18630 24.43099 0.18580
C -18.10369 -8.02058 3.57212
C 30.30463 20.82749 -6.25971
C 16.19184 26.97024 3.23053
C 22.63694 -17.02191 16.81394
C 11.64000 -23.50727 -0.97139
C -18.74909 14.90974 -2.41936
C 9.87283 -12.28765 13.46425
C -18.28331 -9.33782 3.31357
C -21.41600 -22.74353 1.04827
C -0.05096 19.64409 -5.13343
C 30.99065 18.56196 9.55370
C -23.25898 15.13733 8.17995
C -17.81470 -13.83278 0.83352
C 16.33581 26.36245 4.18269
C 30.90530 -9.20988 -24.49646
C 10.04325 -26.63492 -5.33967
C 26.15392 -14.64716 19.50845
C -7.85978 -10.27014 -6.62960
C 2.69615 20.57762 -2.82131
C -23.35689 5.02715 -4.83228
C -26.35798 -21.72250 -8.29852
C -11.77548 -1.60487 -0.12397
C 12.35785 -16.24416 12.08555
C -20.12855 13.59688 6.28658
C -11.67438 13.26264 -7.31077
C -16.67366 -15.32641 -1.07613
C 13.71202 -29.40587 -2.19425
C -19.37476 -23.05514 2.58588
C 30.03311 19.78355 -5.53457
C -6.35550 -8.06455 -7.73801
C 11.96076 -25.35667 -2.39071
C -19.22303 6.20778 -7.58471
C 10.73228 -26.80846 -4.09203
C -26.17350 -22.43526 -12.34899
C 9.90060 -4.95270 15.04081
C 30.70461 -20.70511 29.53362
C -18.43499 14.50645 1.40711
C -4.23157 -7.00534 -3.63320
C 10.16037 25.43402 -0.79876
C 27.97962 -27.39212 22.08641
C -26.28218 18.27262 3.96759
C 1.85058 -10.37065 -1.36061
C 11.06444 26.31176 -1.36008
C 6.33096 23.54607 -0.91855
C 29.91500 16.72303 6.91907
C 29.57242 25.44264 22.63506
C 10.23872 20.79439 -0.57267
C 26.56234 -13.48528 20.49475
C 25.51881 -0.08861 -2.66825
C -14.51506 16.40857 0.04026
C 29.00740 -28.23126 21.59476
C 28.50724 21.79186 14.50512
C -6.28658 19.81168 -11.08480
C -10.96700 -7.89529 -3.24276
C -18.62630 -15.09372 1.05868
C -18.48683 14.23615 -1.12942
C 30.39531 -5.32063 29.25365
C -25.10555 2.55312 11.74951
C -18.80563 12.31175 4.66655
C 4.45117 22.08213 -2.00392
C -6.40556 -9.28042 -8.59202
C 11.71609 -24.13768 0.16861
C 30.68523 -6.07459 30.43873
C -26.01031 -22.87477 -27.17245
C -0.69561 -5.38990 -3.32783
C -6.83176 17.78983 -4.05714
C 29.75071 -17.37485 30.32953
C -10.93888 -2.74915 0.49285
C -24.08070 10.84295 4.71917
C -23.85658 3.73733 10.07044
C 5.14038 22.83430 -1.24394
C 1.21184 -6.84863 -3.96218
C -18.32804 -4.40307 0.76622
C -25.14750 -23.89550 -26.81026
C -24.16669 -12.81766 5.22713
C 26.69539 -28.56863 -15.29360
C 16.58384 -23.19889 -18.61644
C -19.49067 0.67444 0.01694
C -24.92529 -20.99835 -6.37955
C 29.25843 25.23871 18.00712
C -17.14326 14.94081 -3.55403
C -20.74212 19.50289 2.93488
C 24.79282 2.43860 -5.27109
C -19.18345 4.55952 -0.93499
C 17.20210 25.65727 5.05440
C -25.03605 17.10154 2.15655
C 25.96523 -24.84905 -17.08976
C 16.20104 -30.41566 2.00517
C -18.43765 -5.17387 1.74216
C -18.01938 6.04737 -8.05101
C -9.78042 -8.05831 -4.03301
C 5.36954 -8.30986 14.17765
C 3.62592 21.25045 -2.31294
C 30.44930 19.07866 -4.51777
C -1.49199 -0.79506 -4.41476
C -25.31341 5.71075 -0.37558
C -19.34293 -0.61318 0.17527
C -24.83953 -5.08487 -23.77225
C 26.53291 -27.43795 -16.33621
C -20.00668 10.44863 -0.62996
C -10.88529 -5.44678 -1.72882
C 16.81895 -23.48817 -20.15712
C -20.76764 -15.84167 2.24301
C 10.71822 -15.48757 -18.46731
C 1.33903 -1.93888 1.69679
