373
C373 1000 K last frame of liquid_carbon.lammpstrj
C -2.87748 -0.01369 -2.98163
C -0.42602 -0.36871 0.32842
C 3.73017 -7.56587 1.40094
C -1.27506 -3.40151 -3.69659
C 1.12339 0.64444 -2.14399
C 0.90483 6.06748 1.76441
C -1.23785 -3.48363 -6.18445
C -5.44358 -1.15161 -4.66090
C -1.40370 6.79685 -3.02694
C -0.77057 -2.81184 3.17142
C -3.60101 -3.32102 -0.07452
C 0.54859 -5.01198 -0.77107
C 2.36640 1.59388 -6.60295
C -1.09052 -2.37650 7.03283
C -5.64919 -0.62877 -3.25946
C -1.44994 4.86325 -6.20424
C 3.37677 -1.55009 5.54395
C 0.82479 -0.82836 -0.23649
C 4.30046 -4.54047 3.79755
C 0.59112 -5.09635 1.31362
C -3.70066 -4.46611 6.75807
C -4.60427 2.41092 4.91278
C 0.49558 -0.19557 -7.36305
C -0.84782 0.15569 -4.30177
C -1.74148 -2.04613 -3.85700
C -2.13400 1.64915 0.95177
C -0.93219 0.88193 5.75667
C 0.38517 -0.46929 7.77875
C 2.39325 -0.69387 -6.27438
C 2.90619 -0.94930 -1.39512
C 2.57767 0.22137 2.30015
C 2.02151 2.01788 -0.24314
C 0.43991 3.34028 4.90815
C -1.18566 5.18754 5.86893
C -3.14912 -3.32669 -1.42944
C 5.60654 1.71645 -4.24830
C -0.71218 2.85303 4.20905
C -2.16733 3.57170 7.42396
C 6.67733 -5.36972 -1.71959
C 7.09977 -4.95741 0.59831
C 3.07221 0.85138 5.15837
C -5.71799 -2.67730 2.85042
C -1.39288 2.79424 -1.23008
C 1.00534 4.71696 4.87395
C -1.35822 1.57531 4.57529
C 5.31888 1.28244 0.27078
C 2.93611 -4.99410 0.11714
C 0.11151 -6.06252 -4.48290
C -0.94082 0.90676 0.04764
C 3.98311 -5.38332 -2.79616
C -1.16529 3.16060 2.90441
C -3.99908 -2.03242 0.29937
C -1.92671 6.53037 4.12271
C -6.38961 -1.46375 6.44703
C -3.58822 0.68292 -1.77080
C 4.59773 -3.17467 3.84870
C 1.60486 5.94330 -6.89681
C 2.69353 2.42359 3.24728
C -1.30897 -7.81065 0.87168
C 5.46274 -2.17402 -2.50544
C -1.88644 2.94591 0.16957
C -6.63572 -3.40944 0.80085
C 2.64156 2.38228 0.89489
C 0.38598 -7.72744 2.68052
C 2.12723 5.67109 7.38507
C 5.12699 4.13527 -4.13853
C -4.91374 5.81611 -4.06712
C -2.09875 -1.30866 2.15635
C -4.21788 -0.55152 8.74376
C -2.66100 3.27101 -3.65840
C -4.23785 -2.33697 2.65055
C 1.58362 6.02333 -3.21015
C -3.68550 -2.96386 -6.59514
C 5.22010 0.85913 4.70017
C -4.79992 -5.95853 -0.49522
C -3.19286 -0.24991 2.05775
C 4.01054 -2.82862 0.03347
C -2.75342 0.95624 7.40145
C -0.48765 6.40746 4.04841
C 2.76910 5.17568 -3.46211
C 6.36537 5.39303 -1.07633
C 5.34753 -0.80903 -1.47556
C 2.67628 4.80151 0.87029
C 2.80903 -0.87193 3.17518
C -5.62783 -2.58488 -4.86466
C 4.73933 3.82597 0.22466
C 1.72956 -3.19915 5.82756
C -2.73860 4.13359 -2.52337
C 0.15034 1.01746 -4.41410
C 6.61599 -4.13898 1.73889
C -1.54883 4.24539 -1.67879
C -5.69299 -0.65365 3.83395
C -3.83196 0.13515 -0.45234
C 6.12666 3.00430 -3.92355
C 2.30159 -2.05493 2.76703
C -2.36188 -7.21791 1.53936
C 7.82914 2.68759 -2.25452
C -3.91714 -0.50337 -6.56337
C -4.82162 3.81688 2.70917
C 5.70295 5.57885 3.98498
C 0.25427 3.42697 -4.97223
C -3.32301 -2.71346 3.53089
C 4.39166 -0.13788 -3.34857
C 2.84526 -6.96722 3.50149
C 1.02531 5.52798 8.05513
C -1.86792 -1.44251 -7.33440
C -6.69926 4.23886 -3.22780
C -3.48464 0.71990 0.87336
C 6.49250 -3.07688 -2.18039
C 1.27333 -2.27587 1.60869
C 1.19104 2.28124 5.52172
C 3.36242 -4.99150 4.77934
C 3.74348 -7.37745 -1.14768
C -5.92157 -4.53335 1.46454
C -3.17851 1.99682 -6.63229
C -2.81759 6.34317 -4.84990
C 6.87605 7.59925 1.38248
C 6.37011 -6.03937 0.89709
C -1.00378 -1.24078 1.26686
C 6.49435 4.14482 3.37413
C -1.26389 5.05989 -0.53335
C -4.64367 -5.52238 -3.09251
C -4.50369 5.17099 -0.81627
C -6.38238 1.75325 -6.12791
C -6.72328 -0.76968 1.57733
C -3.82953 3.52106 5.35223
C -1.34664 -6.53692 -4.49031
C 6.74915 2.90650 1.39741
C 8.03214 -1.98936 -0.65626
C 2.19725 5.08998 -10.34678
C -4.07888 4.85746 3.23634
C 2.39122 -8.10861 1.51714
C 1.72840 2.81877 -6.38705
C -7.14068 1.86696 -2.79258
C 1.14290 0.97307 -3.48607
C -4.89210 2.36295 -3.07850
C -2.59335 -3.94611 -6.43346
C 2.34180 -7.56975 -1.64338
C 8.50770 1.02649 1.32832
C -0.17632 6.46816 2.56467
C 5.54040 -2.44091 3.10273
C -0.14716 -4.05016 3.79842
C -0.15584 -8.12516 -1.42290
C 5.98477 -2.87850 1.74734
C 3.27487 5.13957 -12.57603
C 3.85268 -4.15206 0.07629
C 3.17620 3.45370 6.67341
C 1.07536 2.10983 8.32583
C -6.36276 -3.27033 -0.55112
C -0.50877 1.90770 -0.80232
C 2.26663 -2.76977 -5.00880
C -2.71962 6.85732 -3.56807
C -2.49127 3.01935 -7.15831
C 3.29917 5.38181 5.26381
C 2.08626 -1.85899 6.33894
C 3.40357 1.32538 -5.71375
C -1.49212 4.08198 0.78934
C -4.52163 -4.61067 -5.27621
C -0.86946 -3.99900 -2.46944
C -0.54384 6.72400 -1.90980
C -2.66603 -5.78585 -4.47682
C -4.59067 -6.48258 1.69821
C -1.74923 2.31503 -3.86892
C -4.03907 6.28952 1.24140
C -1.19966 -4.81824 4.24128
C 0.03455 4.57623 7.70913
C -5.46899 1.43463 2.49002
C 1.48565 -4.52647 -3.17786
C 7.03554 4.13220 2.19946
C 3.79840 5.47358 -1.17285
C 7.39519 -4.57207 -0.64718
C -5.27252 -5.29409 -1.77676
C -1.46348 -7.55314 -3.52160
C -3.17209 -4.33655 5.50894
C 2.62235 -6.02953 4.52194
C -7.38147 0.73535 -1.88555
C 1.64912 3.41238 -5.06320
C 1.92261 -6.73905 -2.69165
C -2.80150 -4.15802 0.65271
C 4.49293 -6.52963 -2.13774
C -5.01935 -0.29661 -5.69518
C 1.41702 4.95040 -7.87217
C 3.91570 -2.75744 5.24089
C 0.40097 -1.58295 -6.87603
C -5.82945 -3.58038 -3.87517
C 6.03668 6.75328 3.44368
C -1.65965 7.01542 0.68870
C -0.83752 -3.31506 5.96858
C 6.97449 3.49172 -2.91607
C -6.47219 -2.24687 1.61187
C 8.02867 1.51495 -2.04029
C 0.78284 3.75606 -7.16323
C 0.07077 -7.95034 1.37716
C -0.40710 -4.97228 0.29462
C -1.37008 -6.18572 3.63887
C 6.70656 1.12938 2.85447
C -2.99276 0.63987 -7.09032
C -0.73805 -3.96185 -4.99474
C -0.61780 6.47453 -4.31329
C -4.75611 5.20757 0.61527
C -4.25706 1.87564 -1.91761
C -1.84217 1.89532 2.36416
C 5.02566 3.68552 5.18609
C -4.05012 4.75533 -6.35858
C -2.56668 -7.19470 -2.61648
C 3.43846 -0.16484 -5.54790
C -2.60365 -7.34105 -1.22100
C -4.49322 -4.75835 3.37037
C -4.67834 -3.04279 8.70290
C 7.59633 0.25516 -1.75327
C 1.88245 2.73961 6.88648
C -0.27146 -7.80180 -2.86642
C -4.70299 1.57039 1.20280
C 4.32598 2.14293 -4.94990
C 4.05394 -0.52953 -2.01686
C 7.57434 -3.13613 -1.18940
C -3.26867 -1.76032 -6.90381
C 3.44917 -0.42218 4.45175
C 5.24441 -2.31186 0.50330
C 4.83788 -4.33423 -3.05779
C -5.41112 -5.73712 0.84223
C 5.69815 0.09580 0.83378
C -1.79443 -0.10032 -7.61697
C -3.61304 5.91876 2.54332
C -3.08697 7.09597 0.45920
C -5.88124 2.88961 -6.52674
C -2.79676 -1.45275 -3.10258
C 1.33143 6.31169 -5.75027
C -4.08421 -3.86446 7.79657
C -3.27006 0.18653 3.44947
C 4.36805 1.44800 5.59898
C -7.24976 -0.01867 0.60856
C 6.15531 -4.36253 -2.62678
C -4.08386 6.51613 -2.99465
C 5.55168 0.69097 -3.32201
C -0.75737 -2.23906 -6.86984
C 4.38501 -7.44672 0.15620
C 3.00416 5.00231 6.57336
C 4.77000 -5.56207 2.88948
C 6.24888 -0.08163 2.33123
C 2.76673 1.56501 2.11197
C -2.49909 6.73673 2.84111
C -1.42859 4.21357 2.11926
C -5.08035 -1.46496 -2.02959
C -2.20812 1.15617 3.48865
C -4.97485 0.68825 6.73608
C 5.53687 -1.02083 3.24763
C 7.07263 7.49711 0.08867
C -4.37800 -1.82895 9.03327
C 8.11402 -0.56737 -0.67403
C 2.95908 -1.90331 -0.31716
C -3.58995 -7.11537 0.95895
C 0.51838 -3.59630 5.36085
C -3.65853 -2.33715 -2.36308
C -3.44604 7.16356 -0.80093
C 3.44668 -2.35341 -4.23980
C -3.97385 1.87605 -5.26950
C -3.17817 3.31846 6.59570
C -2.04013 -2.20399 3.29213
C -0.04236 5.76669 5.18962
C -6.09402 -1.96286 4.21292
C -3.28291 -6.09909 -3.31113
C 0.51699 -4.78288 -5.09323
C 0.74337 -6.95802 -3.41975
C -3.95898 -5.93289 2.90221
C 3.83110 5.20155 -2.57794
C 3.94162 3.50312 -4.69221
C 6.65407 7.51326 2.59546
C -6.21427 -4.25084 -1.52203
C 2.55401 5.12453 -11.56855
C 1.40839 6.20000 -0.68526
C -6.47369 -2.34259 5.48810
C 3.00763 -3.76250 5.50674
C 2.67096 4.09812 -4.40761
C 1.20036 -8.15855 0.65531
C -6.40188 -3.36384 -2.64096
C 4.23901 2.80327 5.99757
C 5.00790 4.99814 -0.35217
C -3.66287 -1.56594 1.64873
C -6.00016 5.19119 -3.60140
C -3.22475 -4.93149 -5.56295
C 1.67302 -1.83150 0.30163
C -1.77602 -4.23516 5.37364
C 2.27728 4.10697 3.09734
C -4.59408 1.07278 5.32897
C 2.14997 1.74700 4.53548
C 5.80011 -6.47922 -1.52191
C -3.46612 4.65076 4.64693
C 1.59537 -4.07440 -4.54870
C -0.81576 6.35318 -0.34725
C -4.90159 3.90432 1.26750
C 6.24703 4.65880 -2.38374
C -6.29152 2.93115 -3.03990
C -4.95697 2.48812 3.45578
C -5.48681 -4.19101 2.66686
C -4.23883 6.45074 -1.56861
C 5.71325 -6.81428 -0.07579
C 1.81474 4.90046 -9.20348
C 1.26083 -8.06220 -0.73462
C -4.49906 2.88133 -0.99543
C 5.93656 3.08884 4.21437
C 0.54251 1.01127 7.63223
C 5.05495 4.91122 -3.04060
C 7.01783 6.46764 -0.74555
C 0.82885 6.43981 -2.00274
C 2.24291 4.85029 4.33300
C 1.34196 -1.23719 7.27865
C 1.75039 0.35128 -7.02348
C -7.44385 0.45921 -0.56205
C 5.84045 -5.30346 2.12817
C 5.61794 2.62712 0.44363
C 0.95639 -4.44100 2.64435
C -0.22574 4.00102 -6.20945
C 7.54396 1.85140 1.94409
C 0.61630 6.41591 0.38935
C -1.47019 -7.92563 -0.63028
C 1.83812 -3.38612 2.61137
C 8.73859 0.20355 0.38941
C -0.67213 0.58328 -7.64909
C -5.27605 4.06936 -6.75572
C 0.85772 3.36135 7.79883
C -1.51979 5.89967 -5.29722
C 0.77752 6.40642 -4.36161
C 6.19616 0.09360 -2.15973
C 2.60661 -5.45346 -2.99129
C -5.96457 0.07653 2.63891
C -3.84851 -3.97516 4.25748
C 5.98477 1.64365 3.95321
C 4.33131 -2.86033 -3.36298
C -0.99133 -1.05225 7.55862
C -2.44793 -6.45492 2.75193
C 1.56250 -0.39452 -1.37545
C 3.88705 -0.86400 -4.46386
C -4.54564 -1.05867 -0.57311
C -1.88082 -3.93425 -1.42741
C -2.38607 5.47254 5.03112
C -1.34005 4.58739 7.18989
C 1.02554 1.77981 -1.14438
C 0.34235 1.10878 6.10509
C 2.66893 5.57671 -0.30772
C -6.00351 -0.33058 6.89765
C 4.65618 4.99947 4.76221
C -1.67452 0.13000 6.92219
C 3.39992 3.60439 0.76555
C -2.86412 2.33425 7.33450
C -6.24482 -2.27494 -1.68498
C 5.49839 -0.99311 -0.02614
C 3.92878 -6.76156 2.67873
C -4.78996 -3.26408 -5.78042
C -3.84394 -7.07399 -0.41860
C 0.53418 -4.49117 -2.18149
C -4.04723 2.69523 -4.15589
C -0.88115 -1.24882 -4.36688
C -4.77636 2.77954 0.45093
C 2.01612 5.10248 2.05919
C -1.67690 -4.57606 -0.08273
C 4.90848 -0.41848 4.32322
C -1.96560 0.76863 -3.68149
C -5.22530 -4.89624 -4.09686
C -0.08958 -2.06754 1.94241
C 1.65410 -5.25161 0.21847
C -6.58468 0.38647 -3.01554
C -5.18954 1.06375 -5.55085
C -3.95151 0.22039 7.60578
C -4.03641 4.13122 -1.59372
C -0.31451 -6.93007 3.46012
C -0.49951 2.41190 -4.41641
C -4.06349 5.72774 -5.22216
C 1.64704 -1.92854 -6.10893
C -4.46885 0.09325 4.34336
C -2.65961 4.30587 -6.82835
C 1.84709 -7.88275 2.86975
C -1.46365 6.91143 1.94027
