373
C373 2000 K last frame of liquid_carbon.lammpstrj
C -2.62865 0.41118 -4.34379
C -0.03663 1.48509 3.04324
C 1.86966 -7.21866 1.48786
C 0.16852 -0.54035 -3.94415
C 2.42693 1.72033 0.68118
C -0.38638 6.76873 1.21044
C 0.08524 -3.31135 -6.86926
C -5.91243 -0.38300 -4.74423
C -1.81856 6.57788 -3.53919
C 0.52492 -4.46831 5.25466
C -3.51970 -2.98805 -1.05608
C 0.26082 -4.18042 -2.23323
C 1.77719 2.12477 -6.27195
C -2.04123 -1.96853 6.68435
C -6.78004 0.50730 -3.87870
C -1.07536 4.77529 -6.59977
C 3.73394 -1.27556 5.78496
C -0.75269 -2.79396 2.67641
C 5.68299 -5.42574 2.35142
C 1.06888 -4.38810 -0.03870
C -3.13800 -2.44721 6.00180
C -5.39341 1.29268 4.83419
C 0.73053 0.21003 -7.39407
C 0.72000 -1.20398 -7.20432
C -0.96998 -1.49632 -4.05821
C -2.41147 1.71905 2.57821
C -0.16475 0.49364 6.67480
C 2.51772 -0.27161 8.33069
C 3.18697 0.04921 -6.32490
C 2.90538 -2.74407 -2.47708
C 4.15799 -0.56644 0.01263
C 3.16029 1.02186 1.52316
C 1.04973 6.20087 3.74205
C -0.98410 4.92419 4.30499
C -2.86759 -2.61295 -2.20840
C 5.67859 1.36669 -3.28475
C -1.51440 0.07184 4.06958
C -0.57399 2.73672 5.69330
C 6.00682 -6.20244 0.18635
C 6.85817 -4.66483 1.74520
C 3.66154 0.20777 5.79318
C -6.45112 -3.26170 2.99966
C -0.71467 3.55110 -3.62871
C 3.29599 5.91506 5.18892
C -2.60151 0.43022 3.32638
C 3.65350 -1.85383 -1.79111
C 2.19945 -4.72686 0.77979
C 0.77682 -5.48887 -6.16565
C -0.93005 2.34912 2.39130
C 4.31262 -5.46468 -4.15178
C -5.47778 3.09336 2.76252
C -4.20619 -2.40404 1.42756
C -2.97094 5.57329 3.17697
C -3.65066 -0.43144 7.11280
C -4.18368 0.67864 -2.42460
C 2.56118 -5.99041 3.22274
C 2.33405 4.84763 -4.80847
C 4.16141 -0.12231 1.30089
C -1.25648 -3.77441 -0.38313
C 1.23039 -3.28219 -4.09889
C -2.96475 2.72295 0.38142
C -7.09392 -4.25177 0.94951
C 3.49199 6.27894 2.05659
C 0.63557 -6.61822 1.90555
C 4.23253 8.19275 5.10287
C 6.88890 2.84198 -1.33112
C -4.74969 4.86973 -4.76304
C -0.25496 0.25221 3.82584
C -2.43543 0.59277 10.88279
C -2.83854 2.48031 -3.33035
C -3.74452 -0.10738 2.55078
C 1.00621 6.48298 -3.35031
C -3.05786 -2.79471 -6.88969
C 5.78524 0.26385 5.03760
C -4.62128 -5.82670 -0.54880
C -4.13044 0.66765 1.45140
C 3.84007 -4.75169 -1.03912
C 0.12639 0.98887 10.91380
C -1.04289 6.20816 2.18644
C 0.63499 7.04054 -0.86881
C 4.03803 6.17043 0.71960
C 5.53045 -4.02319 4.25621
C 1.05673 6.78337 1.26576
C 3.65333 -2.91143 3.42065
C -6.02330 -1.73648 -4.52104
C 4.95709 5.52358 2.57462
C 0.66716 -0.58676 6.93798
C -3.22174 3.18728 -2.11448
C 1.39167 -0.92719 -3.45794
C 7.16788 -3.49624 2.43209
C -2.38966 4.43428 -1.80494
C -7.20045 0.01363 2.66455
C -4.58575 0.29122 0.05731
C 3.72931 0.36830 -1.00480
C 1.63813 -2.65530 6.47961
C -1.82828 -6.45058 1.69885
C 6.65344 0.56221 -1.59668
C -2.67714 -0.65336 -7.34783
C -6.27815 3.14486 1.60851
C 5.10414 10.72736 4.94785
C 0.76380 1.72710 -3.46819
C -5.23196 -2.38570 4.68923
C 5.65666 0.03035 -3.33521
C 2.93565 -6.88268 2.25259
C 1.26685 4.07544 4.96289
C -0.52850 -2.08901 -7.07863
C -6.04084 3.92498 -3.49452
C -3.21844 1.79440 1.26524
C 5.98691 -3.08602 -2.77817
C 4.41626 -1.12238 2.44696
C 2.04691 -0.59376 3.34496
C 3.06406 -3.80132 4.75173
C 3.72537 -6.97660 -2.44740
C -6.08383 -5.02135 1.51338
C -1.76474 2.85836 -7.77420
C -2.94287 5.76096 -5.33686
C 3.73255 6.04017 -1.54871
C 5.30372 -6.61197 -0.98334
C 0.64963 -0.86782 3.71861
C 7.06140 3.76237 2.78341
C -0.59187 7.21049 -0.16225
C -4.83319 -5.32788 -2.97405
C -4.82520 5.25843 -1.29513
C -5.03567 0.18844 -5.85183
C -7.65749 -2.03930 1.14210
C -3.29546 2.92959 5.41351
C -2.14985 -5.94689 -5.24381
C 7.59801 3.99957 0.51273
C 7.02246 -2.51162 -0.67837
C 4.44589 4.71326 -2.90513
C -4.29513 3.79212 3.15556
C -0.15126 -7.10807 -0.36403
C 0.69864 2.91762 -6.85393
C -6.60667 1.90984 -2.01686
C -0.09478 0.84704 -4.13662
C -5.69785 2.43546 -5.41516
C -2.92927 -4.03436 -6.41593
C 2.33145 -7.06016 -3.09176
C 7.88284 2.71363 0.99627
C -2.52686 6.59223 2.35681
C 7.10423 -2.01812 4.03752
C 1.74588 -3.76041 5.37509
C 0.00845 -6.86289 -2.51857
C 7.76444 -2.25335 1.88582
C 4.71573 4.95584 -1.63244
C 3.35299 -4.21016 0.43131
C 3.61479 3.39167 5.17428
C 1.62268 1.82987 5.91441
C -7.26822 -3.86573 -0.34731
C -0.02025 2.91524 1.25598
C 4.03352 -2.33506 -5.80374
C -3.02817 6.29369 -3.95387
C -2.77644 1.86517 -7.64643
C 4.05487 4.80081 4.79438
C 2.66436 -1.66026 6.49622
C 3.97403 1.67230 -4.95904
C -2.41361 4.97581 -0.46594
C -4.94678 -3.83581 -5.08415
C -1.03410 -2.94794 -3.97204
C -1.34514 6.97248 -2.41082
C -3.49175 -5.74285 -4.93856
C -4.08501 -6.22084 1.76250
C -1.61880 2.62984 -4.10335
C -4.93336 5.81501 0.44340
C -1.90472 -4.29355 4.96428
C 1.22113 1.72241 2.59360
C -7.49645 0.14446 0.00256
C 3.23020 -4.93403 -6.07595
C 7.30254 4.85058 1.78715
C 1.23184 3.36268 -1.95500
C 6.67253 -4.93044 0.39138
C -5.35788 -5.18547 -1.72607
C -1.52956 -6.33368 -4.14084
C -3.20959 -3.63235 5.34407
C 4.64067 -3.16622 4.84768
C -7.21330 -0.51089 -1.25439
C 1.86497 1.25848 -2.83644
C 2.30471 -6.66932 -4.42307
C -2.93298 -3.01397 1.37212
C 4.57325 -6.10777 -3.05073
C -4.22401 -2.12240 -6.55082
C 3.08674 3.75630 -4.66021
C 5.08706 -5.17465 3.60421
C -1.69159 -4.83149 -6.08521
C -5.97990 -2.87329 -3.43734
C 5.52431 11.79636 4.35713
C -3.82270 8.44007 1.14789
C -0.79614 -2.57307 6.59639
C 6.43556 1.84607 -2.21344
C -7.19831 -3.09724 1.70903
C 6.46832 -0.65620 -2.33507
C 2.94109 2.51271 -5.53708
C -0.21735 -3.86527 0.50572
C -1.05545 -3.96769 -1.82086
C -1.44797 -5.30676 4.12496
C 7.36353 1.14871 2.97698
C -2.12850 0.65289 -7.50309
C 1.41227 -3.24405 -6.67714
C -0.99382 6.23519 -4.63342
C -5.72054 4.67703 -0.32740
C -4.16458 1.19124 -1.10075
C -5.25863 -1.12180 5.44933
C 5.94160 2.55553 4.48942
C -3.36600 3.76440 -6.63877
C -2.37849 -6.08607 -2.94911
C 3.99278 0.36326 -5.26759
C -2.27259 -6.59311 -1.64749
C -4.66132 -4.73954 3.62423
C -4.36862 0.39393 7.92278
C 7.47661 -1.69753 0.39936
C 3.56137 7.21073 5.39997
C -0.14252 -6.51383 -3.94351
C -7.31440 1.49447 0.33953
C 4.78233 2.31070 -4.09681
C 2.05252 -2.25081 -3.48734
C 6.67716 -1.92212 -1.97340
C -1.92636 -1.87432 -7.11046
C 5.04870 -1.92785 5.48556
C 2.78947 -3.99645 -1.85517
C 4.78835 -4.15785 -4.69429
C -4.99811 -5.85326 0.78957
C 4.33958 -3.04985 0.73274
C -0.44876 0.97678 -7.75441
C -4.66479 6.06112 1.71841
C -3.84949 8.40460 -0.16485
C -4.77301 1.65800 -6.01768
C -2.12994 -0.82708 -3.74312
C 1.06796 5.24136 -5.48697
C -2.20749 -0.64943 7.24115
C -7.11961 1.90608 1.61095
C 4.73256 1.02209 5.32237
C -7.98063 -2.62099 -0.24951
C 6.22099 -4.35408 -1.97276
C -4.46035 5.74701 -3.64405
C 2.28220 -0.03007 -2.90612
C -0.30710 -4.65453 -6.60805
C 3.62295 -7.68855 0.09232
C 5.14221 4.90914 3.86247
C 5.20795 -6.41204 1.46882
C 7.54200 0.04088 2.22498
C 4.46325 -2.62753 2.12655
C -4.20185 5.12864 2.76038
C -1.96039 3.86648 0.40000
C -4.45190 -0.90902 -0.62768
C -2.39081 1.64301 6.77943
C -5.68061 -0.09204 4.67697
C 7.60311 -1.28013 2.70332
C 2.98541 6.19323 -0.31374
C -3.59366 0.07965 10.32992
C 7.24126 -0.21472 0.76248
C 4.16696 -1.88850 -0.42936
C -3.03407 -6.42703 0.87324
C 0.44478 -1.94364 6.64679
C -3.24807 -1.41907 -2.79680
C -3.09825 7.26078 -0.65042
C 4.79610 -1.83885 -4.63527
C -3.51224 1.18030 -3.52658
C -1.96733 2.55594 5.86291
C -3.74238 1.28753 6.72277
C -0.30479 5.85893 3.33622
C -6.25246 -2.13455 3.72087
C -3.71362 -5.77046 -3.60001
C 1.90444 -4.57890 -6.45250
C 0.99348 -6.37940 -5.05354
C -3.80169 -5.48059 2.91685
C 2.29187 5.96298 -3.70533
C 1.96254 2.18605 -1.66085
C 5.34492 12.84140 3.71306
C -6.42658 -4.15918 -1.39356
C 2.89479 1.74098 -0.75209
C 1.62604 6.43321 -0.07926
C -6.45100 -0.71592 3.61677
C 6.83150 -3.36124 3.72058
C 3.49112 5.94915 -3.00328
C 1.07189 -7.65759 -0.66113
C -6.83878 -2.87156 -2.25672
C 4.74993 2.46352 5.01005
C 6.14339 5.62867 1.65192
C -4.26319 -1.30050 2.15670
C -5.53154 3.72707 -4.71617
C -3.95024 -4.60557 -5.75930
C -1.82469 -2.79911 2.08691
C -0.66797 -3.88274 5.78618
C 2.25090 2.85593 5.28695
C -4.24537 1.75412 5.51906
C 2.42907 0.67801 2.67201
C 5.65741 -5.76062 -2.18097
C -3.36496 3.63437 4.26309
C 4.07408 -3.67939 -5.77903
C -1.80878 7.35430 -1.08831
C -6.13690 3.42888 0.11558
C 5.72934 5.05040 -0.68821
C -6.41183 2.68209 -3.01346
C -5.98985 2.03519 3.70554
C -5.74791 -4.53468 2.82490
C -3.68063 5.95707 -0.58555
C 2.02955 -7.78525 0.25406
C 4.26117 3.63090 -3.85012
C 1.20418 -7.35662 -2.33762
C -3.67757 2.49437 -0.89011
C 5.97974 3.81521 3.75623
C 2.38266 0.66562 6.15700
C 6.87108 4.13886 -0.62189
C 5.29157 5.82386 0.46875
C 0.29201 7.02572 -2.36800
C 1.90803 5.33401 4.57141
C 2.04240 -0.55562 7.09955
C 1.90236 0.69103 -6.53201
C -7.45264 -1.97142 -1.40681
C 4.07559 -7.16496 -1.10243
C 7.64917 2.09224 -0.27335
C 1.11286 -5.81351 3.06737
C 0.44078 4.31912 -6.45267
C 7.53644 2.48407 2.35183
C -1.02519 3.98325 -2.26204
C -0.97895 -6.80676 -1.55183
C 3.61890 -5.15098 3.79870
C 7.12703 0.69994 -0.22474
C -0.44888 2.27522 -7.68341
C -3.84475 2.34461 -6.82262
C 1.89738 0.33213 9.29286
C -1.63772 5.56942 -5.62880
C 0.28009 5.99966 -4.48516
C 3.35739 -0.32004 -2.08439
C 3.37544 -6.01148 -5.04029
C -7.41734 -0.59115 1.34990
C -4.55484 -3.62101 4.57483
C 6.49586 1.23626 4.25806
C 5.34701 -2.97566 -3.95127
C -4.34154 0.17207 9.33268
C -2.22288 -5.81409 3.04312
C 0.14600 -2.25040 3.35960
C 4.88939 -0.51546 -4.50871
C -4.21527 -0.68316 -1.93752
C -1.87654 -3.31541 -2.78702
C -2.27502 4.68843 3.96554
C -0.09201 3.93146 5.07666
C 1.25233 2.32140 1.30141
C 0.25954 1.69446 6.07656
C -0.07256 4.06531 -1.10382
C -4.07309 -1.39025 6.16747
C 4.68257 9.50247 4.86700
C -1.55271 0.51592 7.19156
C 1.98910 6.53818 2.47503
C 1.19909 0.52437 10.38096
C -4.57521 -2.31799 -0.13273
C 6.97009 -3.96758 -0.68555
C 3.95586 -7.12138 1.40852
C -5.14678 -2.61948 -5.40260
C -3.16977 -6.22009 -0.49510
C 0.06563 -3.93135 -3.71789
C -6.17550 1.62733 -4.27203
C 1.89779 -1.94503 -6.78443
C -6.92633 2.38257 -0.67490
C -0.66999 3.68026 0.23837
C -2.44874 -3.43687 -0.04489
C 6.23476 -1.31103 4.91781
C -1.24080 1.46964 -4.72676
C -5.46731 -4.17388 -3.83733
C 3.06209 -1.41780 3.38946
C 1.38513 -4.22266 -1.53216
C -6.97870 0.49324 -2.30058
C -4.19572 -0.69179 -6.74091
C -1.17616 0.80619 11.11299
C -5.39578 5.15213 -2.70126
C 0.10862 -5.35282 4.06322
C 0.68962 3.17235 -3.31131
C -3.90227 4.72356 -5.77463
C 3.09722 -1.50732 -6.40262
C -6.89815 1.30831 2.76784
C -2.09187 4.07092 -7.11624
C -0.48823 -6.66394 1.22439
C -3.64441 7.07902 1.75671
