373
C373 500 K last frame of liquid_carbon.lammpstrj
C -3.43614 0.49758 -2.95872
C -0.88220 -0.88784 1.10622
C 2.06722 -7.06618 0.92804
C -1.70409 -3.40209 -4.69418
C 1.11448 0.41598 -0.97246
C -0.57283 3.98887 0.76567
C 0.05874 -1.91934 -5.54137
C -7.12690 -0.84091 -2.74785
C -1.40955 5.46045 -2.71330
C 0.04734 -2.58586 4.27432
C -3.62618 -3.24168 1.17763
C 0.38077 -6.11118 -0.42821
C 1.60682 2.30306 -6.37033
C -1.80565 -2.35728 6.58470
C -7.01047 0.59259 -2.83691
C -0.98011 2.96148 -5.39004
C 3.87779 -2.19601 4.47744
C 0.09091 -1.73839 0.25961
C 4.95894 -4.21959 -0.27937
C 1.86075 -4.72698 0.87382
C -3.50188 -3.11345 5.22787
C -6.12533 1.63196 3.16632
C 1.07288 -0.11397 -6.74045
C -1.42019 -0.01739 -4.94185
C -2.22462 -1.53087 -3.18857
C -2.32762 1.21751 0.44600
C -0.58979 0.45747 6.86102
C 1.05725 0.03648 9.51473
C 3.55507 0.77164 -6.76279
C 2.47386 -1.43163 -0.52820
C 3.40577 0.28601 1.84641
C 1.38206 2.68811 0.19434
C 1.48582 3.38918 3.91403
C -0.45906 4.47380 5.26045
C -3.67161 -2.93556 -1.32800
C 6.83120 1.73190 -5.97480
C -1.02710 2.21996 2.71015
C -1.35405 3.48461 7.06981
C 5.92754 -5.31590 -2.37171
C 7.20949 -4.97373 -0.03141
C 3.16538 1.07296 4.13220
C -6.32526 -3.28931 3.06812
C -1.79379 3.12357 -1.39258
C 2.85995 3.62922 3.66225
C -0.44714 1.64423 3.92237
C 6.20854 1.25403 -1.26764
C 1.57893 -3.59178 0.05846
C -0.54905 -5.32099 -4.37498
C -1.10892 0.62049 0.83152
C 3.57844 -6.14937 -3.83461
C -1.75681 3.38091 2.69643
C -4.20642 -1.98386 1.51639
C -1.50642 6.20122 3.85188
C -9.01132 1.80805 4.32096
C -4.52371 1.42028 -2.37900
C 3.96830 -3.39630 -0.86187
C 2.58531 5.77658 -5.74558
C 0.88399 1.98021 4.00350
C -1.27182 -6.13456 1.38699
C 3.69360 -2.32436 -3.35766
C -2.65712 2.39096 -0.37456
C -7.05492 -4.17648 0.99118
C 3.36833 2.76982 2.59331
C 0.34958 -7.79300 3.15556
C 2.12040 6.43454 6.11255
C 7.44958 3.17756 -2.58038
C -4.69900 4.70394 -4.27828
C -1.67695 -2.99927 2.69446
C -3.89272 0.11628 7.88870
C -3.72895 2.73956 -2.64559
C -4.65392 -1.34980 4.04395
C 1.49815 6.34427 -2.70346
C -2.45441 -3.08908 -5.93203
C 5.64641 0.60793 4.01756
C -4.92867 -6.57615 -0.22069
C -3.75511 0.24406 2.32191
C 2.71853 -2.83620 -0.50141
C -1.58008 0.96758 7.72505
C 1.02276 5.89955 4.17149
C 2.80637 5.97339 -2.39005
C 7.03484 6.29317 -0.85198
C 4.87544 -0.70029 -0.59226
C 2.22034 3.84252 0.52210
C 3.58099 -1.15485 2.38603
C -6.70181 -2.04862 -3.38521
C 3.89411 4.89988 1.52194
C 1.63541 -1.52960 7.52957
C -4.28061 3.60295 -1.62145
C 0.37886 0.97742 -2.03931
C 7.72833 -4.01462 0.80583
C -1.51579 4.53688 -1.42018
C -7.42944 -0.31553 2.90956
C -4.63737 0.29388 -0.06451
C 7.55016 2.75148 -3.98125
C 2.56055 -2.10521 2.35513
C -2.21565 -7.02318 1.89618
C 8.14764 0.39932 -4.10728
C -3.15838 -1.31664 -7.25131
C -4.78065 3.62580 2.64649
C 2.98460 6.99308 1.81418
C 1.25846 2.22823 -4.26914
C -5.36847 -2.69373 3.93024
C 4.76057 0.03961 -3.43387
C 3.88538 -5.63047 1.31842
C 1.56579 5.68318 6.94661
C -1.04035 -1.06486 -5.96149
C -6.22532 4.50083 -2.50278
C -3.57283 0.51083 0.90825
C 6.40310 -4.26982 -3.30234
C 1.28658 -1.75737 2.45379
C 1.69611 1.45066 6.09236
C 5.17190 -7.18562 4.51974
C 3.15763 -7.53601 -1.85610
C -6.24205 -5.14930 1.71511
C -3.63961 0.72795 -4.38349
C -2.53016 4.79312 -4.68116
C 6.57734 6.56712 0.67910
C 6.26439 -7.07642 0.08560
C -1.09550 -1.74163 2.25999
C 6.25727 3.05216 2.03639
C -2.13348 5.57156 -0.39366
C -5.14232 -5.40762 -2.61527
C -5.06090 5.63649 -0.56148
C -5.47969 -0.04060 -5.74338
C -6.83681 -1.76437 0.78864
C -2.85590 2.76021 5.00762
C -1.84182 -4.86222 -4.59175
C 6.70482 3.89009 -0.38816
C 6.77027 -2.02269 -1.83724
C 5.78102 5.96431 -4.42411
C -3.83462 4.52363 3.27332
C 0.98353 -9.00967 1.27560
C 2.70394 3.18115 -5.77041
C -7.31631 2.37134 -1.12737
C -0.93567 0.44549 -2.56880
C -6.54817 2.76253 -3.48051
C -3.80198 -3.24955 -6.02086
C 1.74235 -7.32722 -2.03879
C 9.04031 1.15669 0.60583
C -0.12569 6.40769 3.67735
C 6.38608 -0.70828 2.06567
C 0.55131 -2.57678 5.59220
C -0.52359 -7.96174 -1.65912
C 7.59124 -2.88168 1.33590
C 6.82200 3.69183 -4.71796
C 3.53637 -0.56147 -0.36322
C 3.82595 3.04539 6.10034
C 0.87879 2.13512 8.14679
C -7.25416 -4.41478 -0.40616
C -0.47724 1.73439 1.51147
C 4.10556 -0.51442 -6.34782
C -2.72402 5.50206 -3.45106
C -2.39701 1.03685 -5.05030
C 3.39610 6.08543 3.98822
C 2.84531 -1.94318 5.25200
C 4.96820 3.03532 -6.49492
C -2.62518 5.13211 0.84680
C -5.37686 -3.63594 -4.36526
C -2.33543 -2.87509 -3.36588
C -0.88619 6.78326 -1.91177
C -3.28586 -5.07534 -4.30872
C -4.42256 -6.66556 2.02354
C -2.38138 2.55472 -2.62702
C -3.92380 5.68371 1.40522
C -1.21187 -4.63150 4.66389
C 1.05974 4.36819 7.26760
C -7.50924 0.67494 0.52673
C 1.82811 -4.25501 -4.10827
C 6.52115 4.09691 1.05067
C 2.89884 5.81015 1.08550
C 6.26896 -4.45917 -1.14959
C -5.63160 -5.95893 -1.36249
C -1.51041 -5.75408 -1.87028
C -2.60238 -3.59647 6.29432
C 4.94453 -5.91246 4.26830
C -7.94296 0.18989 -0.72368
C 2.58722 2.70206 -4.48701
C 1.34127 -6.48252 -3.08788
C -2.42594 -3.78344 1.73258
C 4.03699 -7.04471 -2.87406
C -4.40202 -2.03334 -6.50082
C 3.87004 5.39101 -6.03654
C 3.93167 -3.56783 3.72938
C 2.40147 -1.97593 -5.27118
C -6.63011 -3.28005 -2.50926
C 2.28394 8.13031 1.64734
C -2.35835 8.33915 1.08325
C -0.54760 -3.00645 6.43042
C 7.64419 1.55315 -4.72178
C -6.93253 -3.00037 1.72761
C 8.08121 -0.58097 -3.36032
C 3.88295 3.91213 -6.27704
C -0.04537 -6.15782 1.97690
C -0.86090 -4.17631 0.06535
C -1.32043 -6.02218 3.99921
C 6.72924 1.59354 1.94027
C -2.56332 -0.17051 -7.90927
C -0.23992 -3.08937 -4.90621
C -0.48921 5.08408 -3.78739
C -5.11102 5.15664 0.81075
C -4.63887 1.43180 -0.90533
C -2.83975 1.48411 4.28647
C 5.51158 3.29191 4.78292
C -3.49627 3.01634 -6.01918
C -2.59329 -5.04890 -2.21818
C 4.69304 1.57901 -6.89311
C -2.89913 -8.08327 -1.03362
C -4.75750 -4.94815 3.67816
C -5.53953 0.02589 5.91922
C 8.02109 -1.18245 -2.11813
C 2.53740 2.45699 6.65599
C -0.95575 -6.84032 -2.59380
C -7.15468 2.12118 0.33877
C 6.31525 3.05638 -5.87926
C 4.27529 -1.13106 -3.94751
C 6.83259 -3.46621 -2.04984
C -2.03707 -1.90927 -6.59850
C 4.46625 -1.32012 3.46903
C 4.43900 -2.66011 -2.05499
C 6.36230 -2.76861 -5.26360
C -5.36853 -6.14903 1.06889
C 5.82291 0.39625 -0.16312
C -1.31204 0.18844 -7.80817
C -3.70968 5.79088 2.77704
C -2.73432 7.95815 -0.26878
C -5.33392 1.23076 -6.39029
C -3.36195 -0.88142 -2.63738
C 1.44416 5.74910 -5.17744
C -3.32758 -1.70181 4.98280
C -3.83885 1.27717 3.31273
C 4.48078 1.04865 4.80613
C -7.55119 -2.10411 -0.55963
C 6.44436 -3.71394 -4.48528
C -4.09821 5.33609 -3.17086
C 4.61966 1.39684 -3.42103
C 1.25215 -1.42555 -5.85918
C 3.95135 -7.44058 -0.52421
C 2.24800 6.54791 4.73443
C 5.03892 -5.07887 0.85345
C 6.15137 0.48328 1.24863
C 3.34107 1.25229 2.76911
C -2.57154 6.65670 3.09225
C -1.73326 4.23382 1.55169
C -5.24249 -1.88607 0.47870
C -1.47534 0.88182 4.53739
C -7.20728 2.43123 2.71547
C 7.00932 -1.83977 1.73987
C 7.30503 7.39596 -0.14558
C -4.90564 -0.01988 7.04162
C 8.81781 -0.75613 -1.08183
C 3.03333 0.52709 0.52019
C -3.46646 -7.32114 1.29863
C 1.80849 -2.08588 6.17551
C -4.09155 -1.53811 -1.64633
C -4.12489 8.14304 -0.44817
C 5.58832 -0.50794 -6.33179
C -5.02115 0.76909 -4.63411
C -2.46703 2.93006 6.35317
C -0.94516 -3.53096 3.86647
C 0.76878 4.50713 4.35319
C -8.43952 -0.39272 3.76259
C -3.70598 -5.55762 -3.05189
C 0.46312 -4.21386 -4.62138
C -0.04241 -6.33710 -3.50129
C -3.96691 -6.03283 3.25440
C 3.39836 4.84178 -2.58119
C 3.84712 2.55374 -3.57611
C 1.66689 9.19363 1.28468
C -6.99236 -5.69853 -0.94671
C 6.62259 4.90318 -3.97181
C 0.72943 5.65871 -0.46166
C -9.23405 0.41778 4.43022
C 4.71405 -4.65609 4.09122
C 3.93908 3.74310 -2.83818
C 1.37425 -8.17904 0.27049
C -7.26318 -3.30568 -1.21498
C 4.84309 2.22308 5.46958
C 4.92347 5.63446 2.14472
C -4.21013 -1.04877 2.65835
C -5.93112 4.11184 -3.86852
C -4.23148 -4.11410 -4.96512
C 0.16273 -3.11281 0.01847
C -1.32761 -4.25460 6.07870
C 4.40804 4.13875 5.35877
C -6.31646 0.36500 3.64408
C 1.93632 1.24344 4.67077
C 5.37056 -6.60277 -2.26679
C -2.62807 3.84819 3.99811
C 2.61419 -3.01391 -4.17580
C -1.99725 6.92434 -0.96193
C -5.62205 3.97151 1.50782
C 6.94266 5.01579 -1.25856
C -6.93218 3.31112 -2.11182
C -4.86861 2.25196 3.14155
C -5.94466 -4.66170 2.97680
C -4.75264 7.04019 -0.48723
C 5.31917 -7.15732 -0.90076
C 4.79923 6.00672 -5.25949
C 0.75136 -7.54440 -1.02593
C -4.11106 2.75067 -0.47271
C 6.24205 3.04666 3.50479
C 0.86924 1.23620 9.14223
C 7.10330 4.58190 -2.58246
C 6.19228 5.48545 1.50817
C 0.52909 6.61000 -1.61126
C 3.55987 4.70672 4.30337
C 1.32732 -1.04183 8.61766
C 2.07717 0.99414 -6.70937
C -7.75020 -0.98986 -1.46624
C 6.38336 -5.90535 0.68222
C 6.84660 2.64153 -1.30236
C 2.89398 -4.74121 1.89039
C 0.47545 2.53320 -5.47945
C 8.15760 1.42040 1.43288
C -0.36306 4.78774 -0.41067
C -1.66700 -8.42717 -1.16631
C 3.13720 -3.51412 2.62398
C 9.05877 0.20916 -0.31189
C -0.35490 -0.04644 -6.86874
C -4.48893 2.23691 -6.47293
C 1.71318 3.19613 7.67620
C -1.20481 4.26472 -4.71501
C 0.72625 5.77450 -3.97500
C 5.55556 0.89264 -2.58929
C 2.30350 -5.56931 -3.75191
C -7.21261 -0.47814 1.47067
C -4.50774 -3.75561 4.46899
C 6.48891 1.61287 3.47736
C 6.19304 -1.72155 -6.02179
C -2.16090 -1.25496 5.66483
C -2.49388 -6.37240 3.21140
C 1.14284 -0.87905 -0.45037
C 5.95202 0.89883 -6.64022
C -4.81184 -1.00688 -0.56345
C -2.78628 -3.56447 -2.26031
C -1.67192 4.91192 4.62292
C -0.27099 4.25581 6.64453
C 1.85710 1.28030 -0.00450
C 0.58516 1.31253 6.92369
C 1.89906 5.17499 0.30243
C -8.36181 2.47759 3.50485
C 3.99093 6.59623 2.83769
C -1.28629 -0.12746 5.61801
C 3.42035 3.55191 1.29886
C -2.01004 2.35219 7.54600
C -4.19317 -3.32999 -0.09107
C 5.38433 -1.73480 -1.46636
C 3.43192 -6.84078 0.60474
C -5.86486 -2.32019 -4.56079
C -3.76842 -7.37658 -0.11277
C -0.52897 -5.24825 -0.93224
C -5.79345 1.35958 -3.42803
C -1.25701 -0.52235 -3.54776
C -6.71876 3.04654 1.34128
C 0.12743 2.83805 0.81555
C -1.62754 -4.68323 1.07705
C 5.73050 -0.63374 3.31116
C -2.10524 1.12637 -2.63541
C -5.76620 -4.24777 -3.08238
C 0.14409 -1.70176 3.05348
C 1.05604 -5.96206 0.94199
C -7.58915 1.13059 -1.66884
C -5.35603 -1.44945 -5.62389
C -2.70602 0.33988 8.13168
C -4.92659 4.85770 -1.87259
C -0.09438 -6.52592 3.33958
C 0.94111 1.71998 -2.97903
C -3.66449 4.26004 -5.19659
C 3.60888 -1.26856 -5.31915
C -5.58206 -0.27236 4.60966
C -2.20373 2.32424 -5.62562
C 0.71265 -8.91940 2.48654
C -2.41060 7.60047 2.05358
