373
C373 3000 K last frame of liquid_carbon.lammpstrj
C -5.44431 1.06409 2.88092
C -2.76132 -2.71891 -1.65969
C -0.11907 -6.69762 -0.29111
C -5.05613 -1.41763 2.06516
C -1.60176 -3.32896 -0.75134
C -0.53485 4.56783 1.09541
C -1.45906 -1.51908 -7.32317
C -6.70340 1.78768 -3.50632
C -1.21121 7.18502 -2.38460
C -3.80844 -0.87767 6.65733
C -2.01164 1.30008 4.70868
C 1.50616 -2.65826 1.99439
C 1.82183 3.64049 -7.22185
C -6.74507 0.97446 5.58481
C -7.63288 2.09351 -2.38634
C -0.83628 4.15558 -7.00554
C 4.02046 -3.34198 4.34313
C 1.39696 -3.63762 -3.12363
C 6.11690 -4.99931 1.31606
C -0.72309 -6.06218 2.19010
C -5.34744 -2.21766 5.50107
C 21.43046 -20.21165 8.79926
C 0.63501 -0.49093 -8.13003
C -0.23932 0.40573 -8.01267
C -5.35091 -1.85552 0.60318
C -1.98386 3.54530 -3.09071
C 3.72510 -1.50935 1.98947
C -0.39857 -1.83619 7.02138
C 1.97107 -0.56495 -7.90486
C -4.01098 -2.18676 0.18856
C 2.44628 -3.37994 -2.07229
C -0.67853 0.52280 -4.64956
C 3.15250 -1.75240 -3.84311
C 0.89791 4.61638 6.68956
C -2.97161 0.58130 3.82516
C 4.70620 4.30945 -4.43585
C 4.83189 1.33926 0.91214
C -1.15288 3.10221 6.94048
C 4.29811 -5.14381 -3.46916
C 6.12026 -4.73324 -0.10431
C 4.60290 -2.00285 4.36286
C -7.68843 -1.71669 3.49554
C -5.47382 0.49381 -0.30332
C 3.42147 0.71191 -4.33886
C 5.15583 0.04857 0.74947
C 5.92611 -2.92689 -5.16909
C -1.04872 -3.15969 1.67264
C -2.24201 -4.50049 -4.95313
C -1.33736 -0.71153 -4.66437
C 2.25485 -6.16264 -4.87090
C 5.96535 1.83235 4.96683
C -0.12375 -0.01335 4.05616
C 0.24255 6.94499 5.42428
C -7.39614 -0.89566 4.60510
C 0.19927 2.79539 -4.71645
C 4.94548 -4.99272 -1.04502
C 2.17829 5.86691 -4.48058
C 4.51506 -1.99782 -0.20234
C 1.23030 -1.74424 2.79186
C 4.23197 -4.65274 -4.79868
C 1.24853 1.90509 -4.41143
C -7.92436 -1.89082 1.25998
C 3.17009 3.01025 -7.24800
C -4.32914 -5.32465 -0.10454
C 4.76291 0.98667 6.62886
C 6.56122 -0.24563 -4.23927
C -4.75383 6.32499 -3.08926
C -6.68442 2.36161 5.46108
C -3.81168 1.46963 6.65033
C -3.28555 3.26366 -2.55172
C -6.81405 3.87555 3.31650
C 1.21143 7.52864 -0.15865
C -3.76423 -0.61205 -6.58136
C 6.29311 -2.16546 4.02144
C -6.51389 -3.90011 -0.66372
C -1.18077 4.59381 -2.52048
C 6.91051 -2.74767 -1.51155
C -1.34309 1.70342 7.18243
C 2.83753 -0.51339 -4.53671
C 2.22187 7.64079 0.86787
C 7.66360 1.03736 -1.44430
C 7.18185 -2.83077 0.95114
C 1.11265 2.48371 -7.83484
C 4.53491 -2.12322 -1.66611
C -6.81382 0.40191 -4.17336
C 5.24964 4.85109 2.63927
C 1.75933 -2.91462 5.34575
C -1.06399 2.79510 -4.03257
C -4.19905 -0.62635 -2.15556
C 2.73724 -5.86276 1.75383
C 0.33201 2.64343 4.08053
C -7.48098 2.78272 4.30656
C 0.00743 3.97422 3.55156
C 6.23715 1.09384 -3.51303
C -0.16987 -3.65377 -1.27834
C -4.01914 -6.12635 2.32163
C 4.80041 1.82107 -5.48714
C -2.39704 2.73943 -6.89721
C -2.92781 7.29578 3.38958
C 1.97657 -2.91242 -4.50321
C -0.13058 2.00636 -7.83912
C 3.43038 -0.97257 3.29265
C -2.13611 -2.41099 -2.92665
C 1.36455 -6.04181 1.29048
C 2.78000 3.43998 6.75727
C -1.54702 -0.11936 -7.46726
C -4.86320 5.72432 -0.61297
C 1.27503 0.38316 3.83337
C 3.97764 -1.17349 -7.53300
C 0.87904 -3.33127 -0.27624
C 2.24050 -3.40308 -0.82963
C 0.48664 -3.55591 5.53591
C 1.32526 -7.06711 -2.61654
C -7.50424 -3.19395 1.57588
C -2.04862 4.85815 -6.24214
C -0.31368 5.93369 -5.16718
C 7.67483 1.55863 -0.12648
C 3.75757 -5.78962 0.91752
C -1.94584 -3.50806 5.64262
C 7.41546 2.80679 0.51377
C -0.61899 4.28485 -1.48747
C -6.29821 -2.60341 -2.68123
C -2.54055 6.72509 -0.35014
C -4.67114 2.74412 -5.22413
C -8.84226 0.14324 1.74596
C -3.42269 3.92463 6.28327
C -3.79496 -4.60402 -4.49835
C 6.08380 4.63565 0.53426
C 5.22938 -4.00011 -5.82202
C 4.84005 4.89033 -2.23953
C -2.03299 6.31891 5.63006
C -2.46058 -6.69305 0.61325
C 1.44771 4.57078 -6.30545
C -6.63280 3.79697 -0.76713
C -5.10995 0.47824 -1.81130
C -5.69667 4.90485 -1.43615
C -3.82690 -1.93468 -6.37842
C -0.06733 -6.66933 -2.62215
C 8.22313 -0.65563 0.04510
C 1.13661 7.11298 4.34637
C 6.63118 -3.70741 2.04022
C -2.55404 -0.45158 7.17479
C -2.27523 -6.31992 -1.64256
C 3.06674 -5.65536 3.09532
C 5.95036 3.43813 -4.10600
C -0.80243 -2.85814 -3.53646
C 3.22669 -0.98999 6.05903
C 0.78674 0.11656 7.40163
C -8.39008 -1.19901 0.01524
C -3.24683 -3.00773 0.84466
C 2.94545 -4.13986 -6.57859
C -2.47134 7.12056 -3.01247
C -1.85864 5.66755 -5.17899
C 3.42998 -2.35643 -2.46822
C 2.91900 -3.80266 4.85822
C 4.07914 2.86217 -6.06449
C -4.42624 6.04936 2.01186
C -5.65015 -1.51641 -4.72583
C -3.84756 -1.69470 2.73787
C 0.81562 7.18890 3.04128
C -4.58659 -3.50800 -4.60824
C -6.01848 -4.91188 1.66107
C -3.97921 2.22128 -2.69009
C -1.52462 7.60827 3.59785
C -4.24830 -4.18239 5.01041
C 1.58306 2.41132 7.23728
C -8.23390 2.34691 1.52774
C 0.42732 -4.86188 -5.69922
C 6.60300 3.56197 -0.33955
C 4.17520 6.02778 1.05669
C 5.29807 -4.54719 -2.42372
C -7.05900 -3.02793 -1.61015
C -3.75746 -5.32135 -3.15951
C -6.21876 -1.15943 5.37255
C -0.09401 -4.47931 4.54631
C -8.46826 2.26665 0.01594
C 5.16995 5.71969 0.23086
C -0.22485 -6.05685 -3.82384
C 2.04583 -0.74671 3.17721
C 2.58916 -6.63241 -3.63420
C -4.65378 0.31279 -5.65669
C 3.15933 6.14265 -3.65770
C 2.30283 -4.83404 3.94448
C -0.25783 -3.75556 -6.40382
C -7.40488 -0.68514 -3.52535
C 6.22859 2.92739 4.10003
C 4.30812 4.39127 4.96955
C -0.56054 -2.80398 6.07281
C 5.65275 2.17800 -4.45107
C -8.49129 -1.16041 2.42278
C 6.32673 -3.57188 -2.61752
C 2.34582 4.70046 -5.38598
C -1.97663 -6.27392 3.08983
C -1.73763 -2.59484 2.77213
C -3.63281 -5.24745 4.40725
C 8.01851 -0.91407 2.36648
C -3.33797 1.56685 -7.15206
C -2.49310 -2.54837 -6.55607
C 0.20748 6.97051 -2.74292
C -3.24550 6.86478 1.94063
C -0.78628 1.22746 4.50088
C -4.14824 5.01411 5.72919
C 8.34835 0.49328 2.02390
C -4.83791 4.72274 -4.87750
C -4.83108 -4.57410 -2.45653
C 2.94915 0.50434 -7.55337
C -5.10683 -4.54436 -1.00138
C -6.29104 -3.91909 3.68674
C -5.83689 4.93164 3.81815
C 6.29120 -2.66654 -3.76238
C 3.17947 0.44792 6.72567
C -2.52331 -5.77903 -2.95454
C -7.21293 3.41799 1.81309
C 3.60839 3.94355 -5.31562
C -3.23902 -0.13458 -3.20419
C 4.23701 -3.61552 -6.66753
C -2.86919 0.23751 -7.31825
C 4.87529 -4.24963 3.65965
C 7.32166 -1.57908 -2.11870
C 2.09971 -2.96126 -7.29158
C -6.72140 -4.05190 0.87088
C 2.62405 1.83368 -4.26468
C -4.01248 3.90483 -5.56381
C -1.01313 7.23213 4.79809
C -0.81059 7.42963 1.22752
C -6.13358 3.06193 -4.40396
C -4.33278 1.41616 3.44600
C 2.78492 6.74013 -2.16551
C -5.24802 4.35950 5.01174
C -2.27436 7.25198 1.07839
C 4.89543 -1.32285 0.95496
C -8.87166 -0.04772 0.41337
C 4.61332 -2.18872 -6.83853
C -3.80578 6.75194 -2.27859
C -2.42979 -1.28054 -3.66331
C -0.10269 -1.69968 -7.50349
C 2.00382 -6.94750 -1.37365
C 4.13903 3.25006 5.89914
C 4.94363 -5.53153 1.78189
C 0.95913 -1.77236 -4.82362
C 1.43729 -0.41131 -5.03143
C 2.95893 6.48355 4.56413
C 3.27125 2.36873 2.08888
C -5.49049 3.07518 5.49308
C -3.43253 6.18032 5.36890
C 19.49714 -20.55377 10.87128
C 6.99401 -3.43827 -0.26652
C 8.30131 0.50648 0.66024
C -4.73091 0.22472 6.63285
C 7.00807 -1.54847 -3.56783
C 0.03631 -3.51911 -2.60010
C -4.80423 -5.45566 1.18429
C -5.91050 -0.10467 6.01332
C 0.00228 4.45093 2.46763
C -0.26136 7.72731 0.00593
C 5.22198 0.47430 -6.20418
C -2.99048 3.97810 -6.47303
C -2.10301 4.14331 6.35051
C -4.13528 -2.17478 5.96124
C 2.27106 4.46367 6.22494
C -7.62767 0.46001 4.70816
C -5.58146 -3.62252 -3.24475
C -1.64406 -3.64954 -6.03509
C -1.55703 -5.41359 -4.13575
C -5.96067 -5.18530 3.18820
C 3.45295 7.05158 0.35122
C 4.86840 6.05139 -1.19779
C 7.08156 2.31763 3.05059
C -7.72356 -1.55536 -1.24385
C 5.93213 3.82446 -2.76115
C 3.22842 6.83944 3.15817
C -8.06076 1.52802 3.69079
C 0.90838 -4.85904 3.60832
C 3.70103 6.84320 -1.13882
C -2.89465 -6.34370 1.95619
C -8.10201 -0.60326 -2.25313
C 6.19601 0.54832 5.02030
C 6.32523 4.40458 1.85579
C 3.72036 2.29709 0.88633
C -5.76542 5.17081 -2.84986
C -4.78965 -2.24596 -5.60200
C -1.50663 -4.49644 4.74549
C -3.36430 -3.32236 5.90551
C 5.54135 -0.19818 5.93352
C 20.60844 -20.44093 9.71461
C 4.64937 -1.31885 5.81755
C 3.72887 -6.07190 -2.78059
C -1.36676 5.31108 6.29867
C 0.64248 -2.98823 -7.04784
C -0.41905 7.55648 2.51815
C -5.04763 5.39638 0.82863
C 6.31476 2.97003 -1.59326
C 1.66217 1.95248 4.01705
C -3.85022 6.81473 4.38642
C -7.22416 -3.07856 2.96443
C -1.30721 7.04331 -1.02227
C 3.13393 -6.36998 -1.52121
C 4.48144 5.31577 -3.44833
C -0.72807 -6.49005 -1.49696
C 2.54211 2.69395 3.11662
C 7.72378 1.17763 3.16934
C 0.87279 -1.14056 6.80449
C 6.82556 1.73230 -2.42036
C 7.13237 3.16881 1.85134
C 2.10654 7.23114 2.16492
C 7.13978 0.12571 4.19574
C 2.06939 -1.65553 6.23299
C 2.63765 1.81864 -7.66500
C -8.83891 0.88326 -0.56454
C 3.81613 -5.76908 -0.44516
C 5.78202 -0.43608 -5.48112
C 0.69653 -5.80171 2.43702
C -0.03157 5.00832 -6.17773
C 8.01671 -1.68707 0.98679
C 0.49283 0.76515 -4.93670
C -3.00309 -6.13619 -0.49197
C 4.38196 -5.18999 2.94493
C 7.91006 -0.34777 -1.43858
C -1.11590 2.93989 -7.44226
C -5.98486 4.31448 -3.98610
C 2.02795 1.07370 7.30048
C 0.52662 6.41497 -4.19413
C 1.38689 7.13051 -1.89718
C 5.79117 -1.93717 -6.08173
C 0.66852 -5.83470 -4.80510
C -8.52989 1.18816 2.53308
C -5.78978 -3.63554 4.92575
C 7.37374 -1.18732 3.53327
C 3.07206 -4.96864 -5.34912
C 3.12565 -2.67568 1.45552
C -4.42207 -5.56173 3.41487
C -3.90884 -1.96634 -1.21544
C 4.24019 0.16089 -7.17173
C -0.35337 4.56291 -0.11820
C -2.75235 -0.83890 3.48420
C 0.09962 5.56848 6.08722
C 0.44237 3.28854 6.94881
C -1.80418 -3.48335 0.52668
C 3.42240 -3.05640 0.10129
C 4.41408 5.90915 2.36376
C 18.35674 -20.68305 11.39660
C 5.07910 2.14657 5.91188
C -4.25923 2.70488 6.17859
C 5.31810 4.14522 3.97891
C -0.59086 0.54195 7.74780
C -8.05202 0.85039 -1.75749
C -0.38132 -1.65773 -4.66767
C 1.18117 -6.76521 -0.05750
C -5.71664 -0.02892 -4.86882
C -3.19938 -2.81896 2.35456
C 0.57975 -2.97804 0.98800
C -5.16035 1.39215 -2.77469
C -6.01651 -0.26739 0.69444
C -6.44300 4.05668 0.68952
C -1.51328 1.52455 -4.19454
C -0.12225 -1.27186 3.50370
C 5.75118 -3.28908 3.01431
C -5.66184 -0.06560 2.05167
C -6.54045 -1.82526 -3.63362
C -1.25177 -0.78878 7.49109
C -1.04785 -6.73073 0.89269
C -7.50823 2.79493 -1.12690
C -4.21271 1.64625 -5.86073
C -2.59640 1.14470 7.12479
C -3.73640 6.41619 -0.99670
C -2.33356 -5.30046 4.18110
C -2.77642 1.13122 -3.62992
C -4.30038 5.87113 -4.46247
C 2.61549 -1.71525 -7.78907
C -4.85961 5.90481 3.34283
C -2.61705 6.50097 -4.44262
C -1.44285 -1.44055 3.44884
C 3.21048 5.33562 5.26653
