40
C40 3000 K last frame of liquid_carbon.lammpstrj
C 0.86515 3.15448 6.05198
C -2.61113 1.21283 -13.45586
C 6.85029 -4.94672 25.03872
C -3.35437 -1.26229 -12.88035
C 1.20801 3.33481 4.88814
C -2.62053 1.05102 9.24095
C -4.25122 -2.19449 -13.19281
C 5.66711 -4.38881 25.20242
C 4.33676 -2.36013 22.37716
C -0.93869 -1.23339 -7.54958
C -1.33141 4.77750 -14.38477
C 2.03426 2.89113 3.82876
C -1.95905 -4.12872 -9.56919
C -3.27024 -4.42828 -11.79280
C -0.54690 -0.61530 -6.48272
C -1.53991 3.59878 -13.83142
C 1.99989 0.50848 -0.81654
C -1.24141 6.05776 -13.72187
C -5.09556 1.05626 10.35581
C -0.72461 1.70441 7.62719
C -4.07511 -3.42131 -12.29888
C 0.54943 -0.25362 -4.19802
C -0.94597 7.22508 -13.75808
C 2.27196 2.32973 2.58395
C 1.99251 0.85270 0.51841
C -1.34915 -3.19419 -9.02301
C -3.77263 1.14824 10.05639
C -1.52046 1.27790 8.57850
C -1.93912 2.34971 -13.73182
C 2.31371 1.52127 1.54071
C 5.39896 -2.51185 21.72474
C 1.46777 0.08629 -1.80135
C -0.83061 -2.06648 -8.52896
C 5.20229 -3.19710 22.87126
C 5.62904 -3.56818 24.14274
C 0.13175 -0.49350 -5.41974
C 0.17301 2.57455 6.98675
C 1.09881 -0.01316 -3.27168
C -2.87753 -0.00254 -13.06072
C -2.39511 -4.43289 -10.84440
