40
C40 2000 K last frame of liquid_carbon.lammpstrj
C -2.73989 -2.99029 -8.08959
C 6.62084 2.73155 4.48845
C -5.28394 -5.32223 -2.87116
C 1.73450 10.76681 2.17096
C -1.64460 -2.52582 -10.28712
C -4.97060 -4.81139 7.08275
C 1.22042 11.80971 1.47573
C -5.09987 -5.59847 -1.70098
C -4.32497 -4.02985 -6.13280
C -4.81757 -6.02920 0.80789
C 5.71540 0.71955 7.29882
C -2.06579 -2.63434 -9.15137
C -0.91426 -1.89585 -11.11555
C 1.04577 -0.51774 -13.96554
C -5.01706 -4.57365 -5.29809
C 6.20044 1.02484 6.19880
C 6.29291 6.29903 3.38741
C -5.01696 -6.08321 2.07709
C -4.59559 -4.14482 8.11135
C -4.93448 -5.65457 4.75281
C 0.73744 12.98096 1.52373
C 4.11085 7.85408 2.75356
C 5.17669 0.25677 8.45897
C 4.01989 -0.98843 10.52203
C 2.20805 9.65961 2.54423
C 0.48234 -0.99599 -12.92512
C -4.55937 -3.84583 9.37585
C -5.18473 -5.20003 5.90020
C 6.86226 1.52578 5.05465
C 6.47978 5.15028 3.70520
C 4.72628 -0.25774 9.65674
C 3.25638 8.73580 2.57488
C 0.05085 -1.56292 -11.93487
C -5.02467 -6.21447 3.43008
C -5.15520 -5.88426 -0.45098
C -5.19836 -4.98397 -4.05750
C -3.53906 -3.60276 -7.12762
C 5.16801 7.11137 3.11257
C 6.38799 3.84297 3.82119
C 1.58986 -0.12130 -15.17767
