40
C40 500 K last frame of liquid_carbon.lammpstrj
C -1.22512 0.65986 2.27585
C 3.15072 1.19436 3.46931
C -0.86843 -2.73126 0.27597
C 0.07836 -2.03928 -1.74985
C 1.44299 1.14582 1.59603
C -0.49880 2.40479 -3.18459
C 0.26781 -1.71566 -3.03835
C -1.17900 -2.51073 -1.08492
C -0.98282 -1.40950 3.39764
C -2.98551 -1.74529 -2.60835
C 0.53038 3.88501 3.29397
C 0.01892 1.11711 1.64142
C 1.94262 -0.12028 0.95588
C 1.45792 -0.17672 -4.45466
C -2.50164 -1.51802 1.90520
C 1.38572 2.95383 3.16703
C 1.84419 -1.23353 1.99476
C -3.12724 0.19253 -4.13396
C 1.57134 1.13632 -2.50148
C -2.53961 1.37876 -4.12659
C 0.43432 -0.99366 -4.07092
C -0.48387 -2.22770 2.48469
C -0.76694 3.82843 2.83449
C -1.62079 3.26222 2.02337
C 1.03515 -1.79436 -0.71219
C 1.78697 0.49840 -1.40975
C 0.53731 2.05174 -2.67856
C -1.66094 2.27319 -3.75822
C 2.17687 1.90521 2.67875
C 2.63466 -1.08511 3.07412
C -1.10414 1.98667 1.84769
C 0.47331 -2.39402 0.45906
C 1.71041 -0.48317 -0.42140
C -3.35165 -0.91753 -3.53716
C -2.36451 -2.26291 -1.68303
C -1.56212 -2.41070 1.47442
C -1.87249 -0.48026 2.62187
C 0.76739 -2.14605 1.78878
C 3.30603 -0.06757 3.57652
C 2.14220 0.58907 -3.68287
