40
C40 5000 K last frame of liquid_carbon.lammpstrj
C -2.74636 5.04817 -2.70693
C -1.20107 20.65081 7.29165
C -15.89440 2.70818 12.96831
C 5.84225 5.04429 -22.14015
C 21.04215 -15.51005 -11.98671
C -3.52689 5.63949 -5.02586
C -6.72332 -8.72630 21.52429
C 6.43872 4.18142 -21.24631
C -1.03582 4.45364 -1.07226
C 19.33422 -17.81415 -15.39897
C -6.44998 -17.67994 1.57281
C 21.06552 -16.75249 -12.54660
C 5.11031 7.01294 -23.30539
C -7.37957 -7.75792 22.01209
C -16.01232 4.32277 15.34276
C -4.82067 -17.56250 1.75940
C 2.40021 20.80762 11.70585
C 20.10330 -17.48763 -14.34205
C 5.20549 8.15049 -24.00169
C 20.92713 -17.25648 -13.55855
C 1.16049 20.99678 11.15385
C -14.88122 3.92589 15.17034
C -16.26025 3.06904 11.77907
C -3.03196 -20.19521 0.02257
C 5.28928 5.93760 -22.72750
C -6.41433 -9.76251 20.79210
C -3.56364 5.93988 -6.06969
C -1.61448 4.66806 -2.20550
C -3.48034 5.22079 -3.62599
C -3.83790 -19.26010 0.30031
C -4.76132 -18.15440 0.46906
C -17.08184 3.58385 11.01032
C -5.95977 -10.69437 19.83183
C 6.53400 2.94457 -20.75254
C 18.76404 -18.80343 -16.05735
C -0.30717 21.78264 9.17758
C -14.90381 3.04562 13.81982
C 0.33574 21.55387 10.29729
C -0.78842 21.71199 8.01996
C 3.12401 21.01710 12.74880
