40
C40 1000 K last frame of liquid_carbon.lammpstrj
C -0.78168 0.17744 1.42380
C 2.42446 0.88039 4.03280
C -0.62365 -3.74823 -0.08164
C 0.54474 -2.62663 -1.66674
C 1.75643 0.55425 1.77040
C -1.66282 3.70099 -1.46915
C -0.13464 -1.60167 -2.65558
C -0.72257 -3.30761 -1.40995
C -1.72382 -0.94832 1.12646
C -1.50727 -1.76071 -2.70853
C 1.96799 3.79380 1.60854
C 0.30685 0.78268 1.51510
C 1.99698 -0.73623 1.26442
C 2.61783 0.23044 -2.08826
C -2.49509 -2.40251 -0.31763
C 2.38480 2.92047 2.48508
C 1.33394 -1.66679 2.41031
C -2.65035 -0.10976 -1.25396
C -3.71439 5.19901 -2.33604
C -2.54246 1.26205 -1.20920
C 0.73510 -0.64910 -3.22702
C -1.22031 -2.25011 1.60748
C 1.57697 4.44913 0.59052
C -0.25708 3.95159 -0.95759
C 1.40900 -2.53067 -0.38663
C 2.42359 -0.47410 -1.07920
C -2.56680 4.51338 -1.94076
C -2.23339 2.47514 -1.09002
C 2.28316 1.63270 2.88584
C 1.80307 -1.42507 3.59994
C 0.73239 4.40530 -0.36380
C 0.69801 -3.22954 0.70650
C 2.09803 -1.29308 -0.14152
C -2.19038 -0.52264 -2.46638
C -2.11542 -2.73034 -1.70534
C -1.74642 -3.12955 0.72692
C -2.61893 -0.99904 -0.01909
C 0.36765 -2.47456 1.82097
C 2.12717 -0.30972 4.29498
C 1.91930 -0.00279 -3.29602
