40
C40 4000 K last frame of liquid_carbon.lammpstrj
C 1.14178 9.05636 -0.71078
C 0.39762 9.56884 -3.21397
C -2.65321 9.67454 -5.13074
C 13.05843 -0.18928 23.07540
C -6.10340 10.07783 -5.98037
C -12.27009 -3.50462 13.99390
C 1.74314 7.17857 1.24318
C 1.35261 5.37425 4.46145
C 11.82007 -8.48260 -21.04124
C -14.10971 -1.99875 14.70397
C 11.52899 -2.15241 23.25530
C 0.57567 9.42163 -1.89856
C -6.63707 -7.19589 15.88710
C -15.39981 -0.25591 15.83275
C 11.75010 -7.69586 -21.95910
C -3.74572 9.16439 -5.69026
C 12.37978 -10.64492 -19.70340
C -7.65621 -5.36306 15.19929
C -8.88153 -5.27379 15.17548
C -15.24135 -1.40994 15.02056
C 1.58346 5.77273 3.28350
C 11.22817 -5.61913 -23.52503
C 12.32227 -0.98790 23.06144
C 1.60140 8.17803 0.09496
C 11.46349 -3.29098 -24.80423
C 11.44933 -4.48846 -24.25226
C -13.12805 -2.69398 13.98900
C -6.41034 -6.30336 15.04582
C -4.76961 9.70456 -6.21326
C -0.50884 9.29934 -4.12377
C -6.51042 9.49533 -7.02274
C 11.53801 -13.10888 -18.94240
C -10.41044 -5.28892 15.07811
C -16.23498 0.88329 16.11684
C 1.55888 6.58512 2.28448
C 11.39909 -7.12306 -23.00819
C 11.69972 -9.66364 -20.37252
C 11.84393 -11.84366 -19.10828
C -1.38717 9.76469 -4.90449
C -11.37803 -4.62050 14.80308
