60
C60 4000 K last frame of liquid_carbon.lammpstrj
C 1.47009 0.33639 -5.22926
C -5.67836 10.69001 0.70526
C -4.53995 -12.49069 -17.43504
C -0.71149 -3.25144 10.62052
C -5.19924 8.58668 -4.37334
C 0.52408 -0.42103 -4.98749
C -1.60296 -1.42319 -4.10655
C 26.02005 16.84328 -16.45556
C -2.86861 9.52305 -4.84634
C 2.45971 1.06574 -5.43922
C -17.31010 -17.79520 14.43754
C 28.37276 17.28178 -15.64960
C -5.78103 10.01798 -2.95322
C -1.72034 -1.49707 12.15503
C -6.29381 7.70912 -4.63072
C 29.58789 17.52505 -15.64721
C -1.64910 9.50788 -4.60591
C -16.36419 -16.83666 12.52950
C -12.71034 -9.57663 14.23653
C -13.10250 -10.97278 12.33058
C 30.89073 17.20751 -14.84229
C -2.60218 -1.56957 13.03219
C -5.61607 -12.80028 -17.92599
C -5.69129 10.35457 -0.47334
C -2.54952 -3.29061 -5.34655
C -5.31056 10.46707 -1.81410
C 15.20153 12.32072 -2.95054
C -14.27732 -11.39538 11.86796
C -6.85124 -13.14477 -18.40079
C 0.10497 -4.11935 10.39937
C -16.61789 -17.81782 13.29136
C -12.40826 -9.95632 13.00082
C -14.78801 -12.46683 11.10675
C 32.57519 16.02414 -13.56377
C -3.67775 -1.94502 17.02203
C 33.46786 15.47422 -12.83366
C -13.10047 -6.72377 16.79492
C -2.92534 -1.76156 14.47363
C -3.19972 -1.82277 15.63915
C -7.79477 -14.25301 -18.95961
C -12.13640 -5.95773 17.46048
C -14.98658 -13.61897 11.45482
C -13.27517 -8.83555 15.04612
C 26.92574 17.51257 -15.79129
C -15.33177 -14.63892 12.20619
C -8.26037 -13.44103 -18.07002
C -4.02925 9.09101 -4.50593
C 31.45984 16.60802 -13.99397
C 16.42253 12.49513 -3.70250
C 2.51525 2.22708 -5.02706
C -15.97545 -15.71623 12.06753
C -2.59651 -2.57429 17.59596
C -3.87647 -11.31036 -17.62058
C -13.07556 -7.69256 15.76712
C -1.05906 -2.27988 11.38447
C 25.11460 15.94286 -16.66020
C -0.47896 -0.94633 -4.44602
C -1.71493 -2.67227 -4.81144
C 17.40837 12.49314 -4.67924
C -0.78228 9.71088 -3.84743
