60
C60 5000 K last frame of liquid_carbon.lammpstrj
C 5.34550 -4.11703 -2.78040
C -8.57188 18.84039 14.79465
C -13.72927 15.14026 -0.49705
C -12.31273 17.50122 -3.52566
C -13.77677 20.18156 3.34045
C -12.84088 18.44216 -4.33441
C -11.73671 -28.60464 11.48917
C -14.36901 -28.65639 4.15781
C -0.89607 -23.28576 -8.56244
C 19.83080 11.94957 -15.86095
C -7.58097 17.93286 14.48561
C -14.33269 -27.20172 9.24569
C -1.70223 -25.72050 -8.76066
C -1.40080 -26.81184 -9.43333
C -9.63373 19.47299 13.87181
C 3.24675 -5.98425 -2.44889
C -14.93538 -28.33184 5.24437
C -13.55565 -27.38075 10.18713
C 19.15539 7.39494 -12.23519
C 5.40715 1.45312 10.43363
C 4.82969 1.68569 12.89074
C 5.17139 1.92568 11.66363
C 5.61119 2.06787 8.47279
C 21.78885 -10.72099 -2.23561
C 18.17224 7.42348 -11.30682
C -13.74527 17.58832 0.61136
C 19.30912 -11.03520 -2.98772
C 21.15804 9.79294 -15.21970
C -13.66405 16.36896 0.29213
C 23.14931 -10.52689 -1.97847
C -12.87976 -27.76278 11.24138
C 24.37409 -10.41453 -2.25191
C 4.50817 -5.26797 -2.39152
C -0.02702 -22.82573 -7.74574
C -7.52509 16.73478 14.65351
C -13.55835 18.68224 1.24730
C 20.27064 7.32370 -13.17812
C -1.62254 -24.25569 -8.34105
C -10.58303 17.04944 -2.05086
C -14.46933 13.80386 0.24241
C 24.37941 -10.55016 -3.64787
C -2.02241 -27.89627 -9.02118
C -10.44566 19.65531 13.01926
C -9.67122 17.15429 -1.28253
C -14.80260 -27.83069 6.77361
C 4.23482 0.74067 13.31498
C 21.34736 7.64224 -13.85974
C -13.94160 13.75459 -1.03519
C -9.43044 16.05381 -0.44743
C -13.22087 17.49396 -5.24890
C -14.68253 -27.64376 8.02926
C 21.66093 8.89222 -14.58009
C 20.22649 10.82920 -15.48126
C -13.71204 19.34696 2.32417
C -10.84872 20.63274 12.16159
C -11.13424 17.33372 -3.18450
C 17.53208 7.38197 -12.59568
C 6.31543 -3.27222 -2.52715
C 5.86211 1.12041 9.30978
C 20.47458 -10.69051 -2.46018
