60
C60 3000 K last frame of liquid_carbon.lammpstrj
C 7.60884 -1.08484 9.51058
C 9.54144 23.01637 -5.02836
C -5.48026 17.11651 -8.18599
C -15.59145 -11.19305 2.42119
C -7.87458 -5.71339 -1.92850
C 1.43001 -10.99672 6.33893
C 3.71943 -8.11984 7.11805
C 7.99454 0.06442 9.90131
C 6.16118 -4.05881 8.45579
C 0.46520 16.91510 -6.44917
C -5.89992 -4.07745 -1.05393
C -15.78887 -10.65998 -0.18826
C -9.84794 -7.21619 -2.83604
C 8.70182 -25.65214 -4.39432
C 6.86328 -1.75164 8.84189
C -0.91748 -12.14448 5.66129
C -8.99659 -6.24457 -2.87681
C 4.72823 -7.13450 7.28580
C 17.70164 20.11335 -4.88781
C -3.37047 -12.68451 4.68570
C 8.56758 1.34155 10.09162
C -10.83463 -7.69968 -3.34002
C -3.05635 16.79514 -7.24171
C 11.99676 20.19727 -5.36514
C 6.53535 -2.81718 8.25264
C -2.80021 -3.43605 1.20163
C 5.95828 -5.19792 8.14998
C -12.66308 -8.98149 -4.67328
C -0.70524 16.77525 -6.31613
C -11.82395 -8.35968 -3.79443
C -3.66131 -3.72794 0.17214
C 14.13211 18.98343 -4.64609
C -4.74052 -4.04857 -0.46156
C 15.38284 19.33697 -4.75541
C -15.08609 -10.39151 -3.94463
C 7.52064 -25.43627 -3.95870
C -2.22056 -12.59795 4.96202
C 20.09422 19.86963 -5.58340
C -14.55185 -10.38018 -5.15051
C -15.63110 -11.36179 3.59371
C 16.47358 19.71168 -4.62187
C -15.36177 -10.64845 -2.69892
C 18.76523 19.69916 -5.50206
C -6.87169 -4.96063 -1.64885
C 5.63179 -6.35757 7.59673
C 2.24646 -10.17117 6.49604
C -14.78439 -10.57179 5.33212
C 11.05343 21.22363 -5.56202
C 12.94412 19.25464 -5.18338
C -1.89661 16.69575 -6.81708
C 10.22147 22.12962 -5.83517
C -15.99036 -11.02759 1.12481
C -4.21556 17.05521 -7.83881
C 20.91455 20.86920 -5.57574
C -13.36789 -9.99850 -5.39885
C -15.63989 -10.60425 -1.43904
C -0.11848 -11.48280 6.32283
C -15.40902 -11.59889 4.79637
C 2.78291 -9.02111 6.46715
C 9.06117 2.44721 10.40171
