60
C60 2000 K last frame of liquid_carbon.lammpstrj
C 1.82706 -0.34535 -1.37113
C -0.10484 1.65104 2.28963
C -0.37520 1.59963 -2.88949
C 5.93125 -1.89746 -2.81556
C 2.08017 -0.86782 -0.11687
C -3.52413 -1.20813 0.41132
C -2.44313 -2.38787 2.45827
C 1.38592 2.78469 0.41600
C 0.69809 -1.37558 3.91856
C -3.62326 1.07089 -0.97334
C 1.68224 2.10113 -1.79179
C -0.12493 -2.41670 -0.53081
C 0.99057 -1.95727 0.34813
C 1.51548 0.46211 3.05542
C 2.69587 -0.31278 0.88821
C -2.92638 -0.11699 2.47627
C -1.52068 -2.75175 0.23050
C -1.92886 -0.28091 3.47140
C -4.23125 -0.57688 -2.51820
C -0.92403 2.10809 1.40522
C 4.78945 0.08804 -1.73943
C 0.38651 2.47247 -2.02267
C -2.52531 0.76086 -3.03779
C -1.83131 2.75660 -1.43263
C 1.57798 -1.61949 2.76716
C 1.32268 1.48633 2.27228
C -1.52565 -0.22160 -3.11023
C 3.94640 1.83912 -0.30505
C -3.89512 0.68375 -2.45809
C 6.64335 -2.82553 -3.46506
C 0.50354 0.04369 4.06995
C -1.77101 1.90892 -2.62310
C 1.94076 1.85747 1.10831
C 4.00521 1.03664 -1.66227
C 0.89467 -2.40035 1.75468
C -0.77130 0.49781 3.45420
C -3.21081 0.82718 1.46214
C -2.26644 1.88272 0.95677
C -0.20502 -2.93958 2.26910
C -2.79374 -1.87529 -1.83927
C -0.44565 2.78156 -0.94864
C 3.72545 3.17243 -0.41368
C -3.93529 -1.84242 -2.59785
C 5.57910 -0.80045 -2.18699
C 2.26919 -0.47361 2.22038
C -2.67800 -2.14435 -0.35153
C -0.43775 -2.33467 3.72098
C 2.51897 0.83091 -1.96878
C 2.36276 2.95671 -0.82678
C -3.74149 0.09699 0.07906
C 0.06902 2.71220 0.33088
C -0.43243 -1.54974 -1.66908
C -0.00148 0.15431 -2.93254
C -2.79657 2.16347 -0.46394
C 3.03344 1.28497 0.74458
C -1.49165 -2.94276 1.69188
C -3.23920 -1.40755 1.91367
C -1.79930 -1.81060 3.68986
C -1.61569 -1.57062 -2.56553
C 0.76177 -0.81860 -2.24670
