60
C60 500 K last frame of liquid_carbon.lammpstrj
C 0.42340 0.22804 -1.49821
C -0.29581 1.45739 2.48621
C -0.51347 1.73546 -3.30800
C 0.04699 -2.28605 -4.61198
C 2.26199 -0.80776 -0.07605
C -3.31760 -0.21757 -0.40458
C -2.63738 -1.91427 1.58141
C 2.16852 2.67263 1.44106
C -2.07180 -5.11937 5.34653
C -3.40168 1.74789 -1.76583
C 3.22669 2.96128 -0.75862
C 0.42952 -2.88961 0.42738
C 3.13288 -1.25397 0.72365
C 0.35683 -1.05272 3.67907
C 3.26851 1.02416 2.99566
C -2.23611 0.48040 1.47547
C 0.89740 -0.72344 -0.49651
C -0.91622 -0.94419 3.11861
C -2.38198 2.54520 -2.35070
C -0.35596 2.41430 1.51713
C 2.34790 0.44545 -5.01797
C 2.43599 2.82053 -1.94193
C -2.85414 0.87526 -3.82849
C 1.03388 3.18362 -1.73993
C -2.01422 -6.11699 6.13917
C 1.00042 1.12489 2.91259
C -0.91896 -2.54741 -3.79309
C 3.64128 -1.28306 3.64363
C -3.57365 0.54782 -2.59422
C 1.17050 -1.88245 -5.07221
C 1.35868 -0.12813 3.67450
C -0.09326 3.04292 -2.59218
C 2.24220 1.75818 2.52310
C 2.54075 1.31610 -4.07653
C 2.56332 -3.52172 1.22107
C -1.24595 0.36029 2.48447
C -2.48201 1.62926 0.65479
C -1.46719 2.54068 0.62685
C 3.35994 -2.38931 1.50609
C -2.82754 -1.73305 -2.38963
C 0.56514 3.36941 -0.37908
C 3.99427 -2.09439 2.76771
C -1.34195 3.22931 -1.74281
C 1.77416 -0.70326 -5.16841
C -1.81874 -2.11910 2.71824
C -3.45955 -0.67214 -1.75962
C -2.03660 -4.07099 4.55081
C 2.69129 2.21130 -3.19201
C 3.16251 2.81944 0.45667
C -3.19460 1.20254 -0.42342
C 0.85569 2.88884 0.91466
C 1.30647 -3.74047 0.88732
C -1.88471 1.85239 -3.59055
C -0.96186 3.35956 -0.39737
C 2.83562 -0.13271 3.63970
C 0.14126 -1.78808 -0.11080
C -2.89342 -0.78718 0.90313
C -1.90350 -3.19517 3.67107
C -2.00170 -2.41213 -3.06867
C -0.13244 0.68216 -2.53838
