60
C60 1000 K last frame of liquid_carbon.lammpstrj
C 0.97784 -0.72668 -0.72058
C -0.40141 2.16193 2.32404
C -0.20840 0.92522 -3.89650
C -1.16088 -1.17895 -3.25013
C 0.73751 -5.38168 1.02518
C -3.54292 0.14307 0.14166
C -2.41370 -1.28286 2.05696
C 2.16737 3.20340 1.27074
C -0.51546 -5.50274 1.40587
C -2.68237 1.51198 -1.67017
C 3.10185 2.81805 -0.86342
C 2.47333 -3.50934 -1.20462
C 3.66162 -3.66565 1.00351
C 0.13688 -0.13698 4.20802
C 3.22620 1.65268 2.84522
C -2.35936 1.16406 1.91984
C 1.01061 -1.55854 -1.82042
C -1.12916 0.01038 3.60082
C -1.98077 2.62629 -1.95843
C -0.50964 2.92026 1.12879
C 2.20725 0.35805 -3.98530
C 2.00425 2.98102 -1.65113
C -2.57394 0.40866 -2.55757
C -0.25683 3.85470 -1.47742
C -1.48464 -4.77697 1.62482
C 0.88448 1.75743 2.93029
C -2.03630 -1.89766 -2.40837
C 3.42581 -0.64514 2.90324
C -2.96447 -0.79355 -2.01277
C 0.32600 -1.11969 -2.99364
C 1.20585 0.63731 3.81605
C 0.15821 2.28936 -3.30462
C 2.13123 2.40783 2.42342
C 2.27720 1.19678 -3.12852
C 1.78192 -5.13463 0.42798
C -1.42622 1.24490 2.78586
C -2.60322 2.03242 0.80409
C -1.72661 3.19202 0.43106
C 4.05965 -2.84303 1.90338
C -2.80393 -2.14659 -0.21441
C 0.91600 3.48062 -0.88355
C 3.64272 -1.73151 2.46708
C -0.68320 3.03770 -2.59939
C 0.83978 0.00153 -3.80144
C -1.78632 -1.17666 3.34170
C -3.26366 -0.93569 -0.58575
C -2.18868 -3.72943 1.57928
C 1.54323 2.36632 -2.83241
C 3.26224 2.81059 0.38602
C -3.23875 1.38476 -0.33900
C 0.76530 3.51229 0.61820
C 2.93799 -4.18469 0.01011
C -1.40121 0.19030 -3.43523
C -1.59098 3.51846 -0.86705
C 2.59429 0.37903 3.26245
C 1.62392 -2.87455 -1.80700
C -3.00091 -0.07041 1.52191
C -2.45417 -2.48358 1.21376
C -2.20583 -2.72614 -1.34040
C 0.51344 0.03394 0.22792
