686
C686 5000 K last frame of liquid_carbon.lammpstrj
C 0.27930 -2.13735 1.00627
C 9.61426 -14.88677 0.91789
C 6.56081 -12.55885 -8.88274
C 5.89771 -6.57896 16.56375
C 5.24018 18.72462 16.83545
C 1.32941 -2.47169 -1.30895
C 3.61603 -9.04120 17.29338
C 4.56389 -12.59963 6.24708
C 18.38957 7.54265 -15.74329
C 9.45204 -13.49961 28.74186
C -3.15057 -26.71055 -23.38349
C -23.66422 -18.14014 -6.06546
C 6.73856 -8.45618 -19.30877
C -19.83422 -8.75309 -9.02775
C 2.58889 -3.85625 21.02021
C -7.41078 23.80135 -5.29015
C -9.42323 15.63453 -18.76407
C 12.62018 -9.73937 6.62888
C -12.65035 27.52663 -11.42417
C -10.93535 18.89451 -21.98042
C 28.35436 20.28625 -22.31816
C -18.39080 -12.75347 -9.92090
C -18.93005 -9.56044 -8.09697
C -3.17929 25.80749 12.25552
C 15.83785 16.19940 29.51090
C 7.74806 -30.78502 -15.34298
C 15.76763 12.65157 6.33750
C 25.50168 -14.92713 2.34089
C 29.61861 24.55611 -17.05971
C 25.54797 -9.40272 -29.53033
C -14.09482 -21.94643 15.20301
C -4.05839 29.98321 14.81824
C 4.61613 -8.77851 16.43551
C 22.73101 -31.76593 -4.10438
C 16.46587 16.68704 28.27268
C 18.32906 -18.08542 -2.29320
C -22.17710 -6.73047 -11.27006
C 7.56808 -25.90486 13.09395
C 25.96877 12.44999 -25.69382
C -14.36949 -23.33712 15.33490
C -2.60395 17.84830 7.22613
C -3.27640 30.27577 13.71899
C 14.94140 13.32550 29.39170
C -24.08700 27.06109 -6.01848
C -0.73206 -0.19076 31.95153
C 24.65421 -7.30512 30.51137
C 19.05599 14.90136 -7.49019
C -10.69286 -28.62094 -11.45474
C 28.30398 22.18476 -19.66675
C 4.55232 22.24869 20.70624
C -14.20034 -31.68319 8.92423
C 28.56176 -12.44225 -28.08194
C -10.05272 16.64688 -18.36338
C 1.80355 1.71932 25.41063
C -2.32408 20.07446 -6.72800
C -13.73690 27.18530 -11.18118
C -6.93063 -22.41389 0.67435
C 16.95544 4.49056 -2.53179
C 18.50038 8.56490 -16.42774
C -24.86181 7.56016 22.16823
C 24.61645 -28.28005 -16.37421
C 0.95379 3.25688 8.00806
C 17.36829 15.09737 24.97727
C 6.47787 17.28107 13.48220
C -13.48272 -16.87818 -4.58707
C 22.42409 -30.90949 -3.02432
C -21.12056 3.31153 16.90625
C 3.27241 -15.67118 -22.19400
C -5.37221 19.12338 -8.75660
C -6.56040 -23.37463 4.48263
C 24.82212 -28.20411 -15.13855
C -11.93402 -28.59569 -11.30973
C 30.87636 23.06460 6.72190
C 4.12397 -11.40214 -22.60063
C -21.64948 2.06672 16.92278
C 38.55189 28.07715 4.69145
C 4.09804 1.39378 3.83890
C 36.47557 26.53390 3.61900
C -18.27358 -29.97407 8.53153
C -12.45099 -12.33234 30.99511
C -26.66166 9.84010 -21.21118
C -29.30459 4.49223 -4.28083
C -9.94719 -27.04972 6.53673
C 2.66526 -9.57755 17.93340
C 7.23802 -16.23024 -28.18932
C -5.98704 -22.90358 1.34116
C 1.27903 -14.76411 -11.30354
C -11.12517 -22.71097 -1.62490
C 0.85272 -14.10942 -12.66236
C 17.56257 8.60068 17.79693
C -24.94475 -2.06475 -10.76806
C -8.09288 -25.64015 5.01018
C 37.04058 27.50949 4.70939
C 0.19841 22.29146 6.66880
C 10.84335 -8.51966 -19.76862
C -25.23068 4.01115 -27.13742
C 35.19362 28.18986 8.42836
C -0.78807 -8.39048 17.81617
C 17.64935 20.67623 25.05711
C 17.89563 9.40142 -12.25060
C -29.80028 -7.18319 8.85956
C -12.76045 5.03557 16.70987
C 6.85535 -17.53701 -27.73740
C 27.32121 20.89297 -22.98868
C 7.04690 -11.19413 24.50399
C -3.84994 19.66295 -6.76773
C -27.66399 10.61814 -21.15263
C 25.16722 -28.59699 -17.56611
C 7.24062 18.30884 12.97816
C 3.84218 14.70146 12.20613
C -30.45985 2.60641 -25.87850
C -9.24040 -28.85161 -11.48699
C 35.51292 29.82099 10.28317
C 29.07675 23.39219 -17.65362
C 34.43379 17.94659 9.60200
C 13.11407 -16.70637 1.15642
C -6.02386 16.36979 -20.62853
C -12.14210 -11.15366 30.64613
C -17.55063 25.30549 -7.54013
C -11.79210 -26.27292 4.93870
C 8.66510 -14.83472 1.87188
C -15.29965 16.95547 24.63254
C 1.66820 0.64954 27.75799
C -7.10689 7.69818 16.40921
C -1.24922 5.55118 15.27994
C -17.13379 -13.87473 -8.31235
C -30.52051 -2.39507 12.86279
C 24.76016 -13.93118 2.06628
C -13.77348 19.52196 -13.13093
C -28.20021 24.24004 -16.25340
C 6.89353 -19.48552 -26.37697
C -3.75803 17.36147 -24.53441
C -14.89451 2.76708 18.86578
C 35.29135 27.07260 4.07105
C 2.07340 6.18266 16.89932
C 3.92264 -14.75408 -21.66905
C 19.17844 16.84084 -6.57525
C 5.93329 -27.74122 9.93194
C -26.09505 -17.65652 -21.18543
C 6.88351 21.72998 18.02462
C -10.94389 -25.69368 6.11129
C -2.76710 -27.73355 -22.74750
C -21.35989 -16.77148 -28.81249
C 27.58301 21.53837 -21.93190
C -17.28140 -2.49434 -17.32566
C -21.84234 0.08243 18.22496
C -13.48934 19.80938 -20.26121
C 8.35249 -7.61411 -15.13725
C 18.54457 14.90279 -12.05391
C 17.01086 9.54068 -17.67206
C 6.35514 20.96947 19.19418
C -13.56503 -3.92247 -17.41305
C 17.80597 -12.79535 -23.85962
C 0.29583 -1.37578 3.15884
C 20.47699 13.22610 12.15989
C 17.01139 -8.12521 7.45754
C 32.29304 24.99721 5.58385
C 6.21180 -9.59042 -20.09237
C -26.83898 2.27993 -27.71895
C -12.92229 -15.76303 -2.28324
C 10.69017 -15.57178 1.05882
C -24.55242 -5.90664 -12.50274
C -23.51791 -6.66134 -11.62847
C -11.82540 -29.42837 -14.61558
C -23.29188 -2.07490 18.16852
C -2.21039 19.34792 6.02099
C 6.11977 -10.72259 10.34618
C 7.28809 -10.09409 10.18693
C -0.19008 -1.50055 1.97041
C -6.30027 14.20478 -21.92800
C 16.43405 8.52845 18.30264
C 18.87352 12.05952 -16.97443
C -4.48011 19.10253 -7.75440
C 4.70680 17.82862 17.27296
C -13.88142 -10.80221 -5.38070
C 16.93969 15.44632 11.55689
C 9.94816 -13.17673 27.11375
C 16.46410 15.43165 9.63889
C 6.36238 -27.84056 8.68645
C 3.41575 13.47911 11.98313
C -25.07038 -15.78617 -24.70412
C -12.42172 -24.41625 15.06679
C 17.24780 13.77841 -17.88200
C -19.76868 -16.84370 0.42505
C -6.68195 18.13016 8.14961
C -11.53018 -22.88693 -0.51761
C -2.18699 30.39441 13.06474
C 2.00495 -13.33578 -11.58651
C 2.03540 1.28726 5.76940
C -21.71967 -15.64444 -29.47045
C 6.82756 -26.45173 12.08117
C 20.55689 -16.29250 -23.38244
C -8.72670 4.33304 -24.62805
C 29.68235 27.66638 -15.98126
C 18.08963 13.17943 24.16799
C -11.46662 18.27455 -17.14382
C 18.05843 21.90433 24.64807
C 22.60660 -15.22662 0.78000
C 8.80634 20.54811 12.68677
C -19.31229 14.11776 25.12891
C -4.83426 -23.48789 1.48017
C -0.69331 -0.42477 2.86312
C -10.11473 -29.04842 -6.48601
C -16.77167 -4.43499 -21.78373
C 32.95453 18.85750 9.41701
C 29.72970 12.45296 -26.01398
C 18.56114 13.06339 -10.43787
C -16.87583 -3.02351 -18.42955
C 28.20675 17.88036 10.31300
C 17.76530 17.27990 26.03914
C -1.94116 -29.23608 15.38200
C 17.75027 9.61996 20.23147
C 8.74785 18.46270 18.18566
C 17.57991 6.97963 -14.70662
C -27.77694 23.01268 -16.18488
C -13.36711 -30.38787 8.81512
C -30.81511 4.45336 -3.93795
C -18.59454 16.40996 24.18649
C -5.06053 16.30697 -18.04298
C 11.43466 -1.89325 12.24357
C -28.45192 26.42188 -18.10109
C -18.95797 15.12925 24.36505
C -9.89316 -28.48819 -12.63630
C 24.61577 -29.19944 -18.87931
C 8.01723 -12.09289 -8.85464
C -17.88509 -9.59010 -7.40824
C -14.09637 25.42141 -11.45988
C -4.50475 19.25942 6.47025
C 27.26539 12.47177 -25.24690
C 1.82856 2.94941 24.73874
C -13.26579 -17.82814 -8.42765
C 7.20565 -12.45626 24.76920
C 11.43540 -9.14973 6.93097
C -4.63930 -30.34343 -6.32676
C -12.45384 18.65462 -16.59782
C 13.09780 -13.50240 25.57186
C -3.45947 9.71038 16.29062
C 5.90990 -8.58368 16.15310
C -30.98543 3.23578 -4.00467
C 1.43988 -9.01160 18.21296
C -3.02277 24.52455 12.35349
C -11.81735 19.95495 -21.69151
C -14.20257 -3.62738 -16.25166
C 19.50646 -16.17980 -23.81957
C -10.62713 17.48377 -8.78879
C -14.58636 19.97624 -19.82896
C 1.91533 -2.70662 4.60152
C -15.49981 1.62667 18.89933
C -24.77807 -13.55253 -25.72798
C 9.28358 -12.35202 28.26448
C 4.96420 -14.11833 -9.56929
C -6.03785 17.02039 -17.69577
C 6.55957 -18.27122 -26.53603
C -21.12502 -17.45469 -27.81513
C 6.39803 -31.82974 -17.32492
C 17.51789 15.62079 -12.07582
C -16.27221 -9.67202 -4.71004
C 16.32740 13.60370 25.68283
C 9.43583 -12.68329 25.08998
C 17.71928 5.67527 -1.70734
C -16.25352 -2.32395 -15.33153
C -4.72656 26.78871 14.43222
C -6.86465 14.94159 -19.15305
C 30.34205 22.06822 7.45234
C 5.87109 -9.88021 -21.42179
C 7.13707 -9.36814 -16.56743
C 34.01887 10.65304 -26.71916
C -11.31480 27.05119 -11.64635
C 26.18217 -8.92371 27.83829
C -2.11464 -8.56622 17.14416
C -28.00179 2.58537 -27.33102
C -6.99809 22.59726 -6.12914
C 1.50778 1.72013 6.82662
C -20.77787 -7.95433 -9.55023
C -20.39582 -17.09121 -0.58414
C -29.67835 26.51397 -18.38263
C -21.42996 0.81336 17.36369
C 8.28837 -6.35009 -15.34806
C -4.82336 10.36265 12.69692
C 1.90586 3.08167 23.49505
C 9.21364 18.24088 16.95954
C 3.94146 -12.31068 10.82262
C 1.83716 12.66988 13.41610
C -23.67542 -5.64775 -14.83015
C -16.67555 -4.16682 -20.57265
C -26.44573 -16.45193 -22.35183
C -30.37754 0.52118 -27.67253
C 15.97739 12.99970 9.00512
C 25.82704 -26.62050 -13.49293
C 1.98675 1.21962 26.67309
C -24.83835 -4.42063 -11.95569
C 29.34653 25.60517 -16.51637
C -5.77834 1.89794 -23.26125
C 1.68559 -13.02567 -13.10339
C -27.43821 5.14153 -3.15763
C -21.16605 -18.49137 -27.23422
C 26.48550 -8.22278 23.71494
C -15.52085 -4.51613 -24.01112
C 17.06893 14.68605 -19.01039
C -21.19867 7.75574 22.25933
C -13.06644 -13.33814 33.92225
C -12.08584 -18.22462 -8.47735
C -12.41145 -23.67461 0.16641
C -17.65349 25.99663 -6.30758
C 14.24637 -17.21078 0.38965
C -1.53132 -28.33593 14.24865
C -6.62222 19.62309 -8.54524
C 7.88187 -8.15082 -18.99777
C -14.19415 3.63460 18.05743
C 2.67504 -6.06966 17.48438
C 29.27604 18.46920 10.35732
C -12.45174 -8.63255 28.73127
C -14.25493 21.65008 -12.22423
C -11.37019 -28.95528 7.68691
C -12.82290 -16.31392 -3.50280
C -9.22598 6.49768 16.55428
C -2.01636 -30.46845 16.29997
C -30.98184 -2.79278 11.56395
C -11.75225 -27.67160 -13.96312
C 9.95658 -3.82797 12.27910
C -24.74657 -14.39722 -24.74317
C 39.93924 28.04429 4.47260
C 8.93222 -11.79633 -9.73114
C -9.09000 22.79965 -12.06393
C 33.30224 25.47451 4.98945
C -15.34780 -3.12191 -15.57848
C 25.46628 -13.19938 29.74251
C -14.02420 -2.42335 -24.38569
C -10.29156 5.68035 16.74701
C -22.82714 -17.60614 -3.64762
C 15.03375 13.04142 27.75110
C 24.71863 -33.11237 -4.70398
C 16.74227 3.74947 -3.32362
C -25.94756 7.12408 21.40146
C 5.67007 4.54811 1.99263
C -3.12569 19.77095 -5.50182
C -9.96787 4.20716 -24.74292
C 7.46305 -15.28906 -28.83759
C -0.97405 4.30872 25.82895
C -13.02169 -28.59724 -14.13691
C 30.72243 12.13713 -25.33033
C 5.47103 21.44764 19.91304
C -14.61699 -32.80663 9.17842
C 6.85182 -7.59197 16.29471
C -20.53693 28.46020 -7.58402
C -18.31170 -13.15918 -8.62663
C -3.73185 8.49292 16.93794
C 16.17034 14.51077 -19.88330
C -21.67467 26.87276 -7.36449
C -4.12238 9.85768 15.06320
C -4.65254 16.94203 -23.83542
C 34.97645 28.78197 9.43725
C 6.23687 15.96793 12.52474
C 15.96236 12.72608 7.59933
C 4.29040 -13.58954 -22.03822
C -5.44766 -29.68633 -7.14818
C -13.37490 19.19598 -14.18816
C 10.15865 -9.35210 -20.56460
C -31.56201 26.86230 -19.92421
C -8.98343 -29.18174 -7.49149
C 4.54285 -13.41773 4.08262
C -17.00011 -23.33824 15.19410
C 19.68212 16.05668 -7.30396
C 2.73043 6.93680 17.72482
C 18.44000 10.51633 -12.23494
C 3.87226 -16.65481 -22.58342
C 1.47126 -5.90311 18.11133
C -22.95582 26.78072 -7.16291
C -31.01470 -0.38454 -28.39285
C -20.05895 28.67576 -8.88998
C 22.55282 -13.74711 0.65535
C 3.19350 1.62333 4.73910
C 28.50420 12.80047 -25.42725
C 17.79143 21.71860 26.11749
C -30.08275 1.42906 -26.85681
C -4.01655 10.21516 13.88473
C 17.08796 -18.08660 -1.93145
C 16.94522 7.43502 -13.52784
C -16.28657 -4.98824 -23.06927
C -27.32903 -17.47202 -22.23857
C 4.16903 -13.45022 1.03697
C 0.33111 32.51480 11.06783
C 32.87847 10.41068 -26.97657
C -1.10718 -8.33676 16.51442
C -8.46305 -30.00705 5.63083
C -26.47191 5.74577 -3.70060
C 0.67262 -0.55542 29.67271
C -7.82161 -29.49305 6.66373
C -1.25262 30.92086 12.39681
C -8.25039 -29.40021 7.90755
C 18.05254 10.86514 20.86084
C 4.71676 -6.15482 16.85321
C -2.23384 5.17835 26.09923
C -26.22057 3.52698 -27.62519
C -2.57041 -29.01667 -21.93740
C -13.75411 22.86785 -11.70100
C -24.25763 -5.88986 -13.72787
C 1.27494 -2.35397 3.61238
C -5.84927 17.55804 -21.63618
C 26.51954 -12.63000 29.71186
C 10.50580 -11.92498 24.37755
C -30.73434 -3.32770 10.40776
C 26.88612 -9.36540 26.75726
C 15.41269 15.14392 30.43886
C 5.74675 5.74855 1.42936
C 17.28687 16.47853 27.28475
C -0.61174 -0.55876 33.15351
C 3.45908 6.63242 18.76831
C -15.04373 -14.04536 -6.60855
C -26.97743 12.41576 -18.11557
C 7.60596 -30.21012 -12.81702
C 7.80296 22.55214 17.57059
C 17.46872 9.05248 19.00312
C -12.67721 -30.56061 -14.75953
C -10.57322 25.97614 -11.30886
C -3.31118 18.80433 6.55764
C -6.18979 3.93050 -25.82892
C -16.93877 -10.43628 -7.04061
C 2.70135 12.97761 12.76011
C -23.65382 7.39739 22.10955
C -12.88157 -9.80344 28.53919
C -10.02431 18.59514 -8.00060
C -13.69253 -17.59382 -5.60035
C -9.40422 23.98356 -12.11908
C -7.52422 17.72805 8.96551
C -12.42376 -11.31585 -5.69591
C -12.91573 -12.83937 31.98148
C -5.14266 9.00625 15.41035
C 28.00208 21.55700 -20.72069
C -20.06458 13.02174 25.31464
C -1.05414 6.10628 13.92750
C 17.81125 12.92023 -17.06120
C -10.60528 -28.35141 -13.93675
C -7.21576 21.55093 -6.84887
C 3.70565 -6.80109 17.35558
C -4.88259 11.19577 11.73309
C -30.75167 26.58465 -19.05465
C 23.01379 -16.17237 -0.49787
C -15.83606 -13.58644 -7.74468
C 12.39001 -1.12271 12.95173
C 30.59748 20.25698 9.09060
C -27.98520 12.35981 -19.04344
C 1.63880 11.24967 13.99509
C -12.89451 -20.61367 14.34452
C 18.80163 -15.11726 -23.67462
C -7.83461 20.44835 -8.10904
C 25.53467 -10.27690 -28.67218
C -12.69157 -9.86522 29.71043
C -25.42842 -2.03696 -9.69728
C -9.17944 -26.66816 5.37491
C 16.11543 -18.03740 -1.10786
C 26.83271 -8.75599 25.10990
C 24.49205 -7.67110 29.26889
C -28.18548 -19.54129 -23.55709
C 10.72087 -13.07168 26.06445
C -21.92186 -15.77751 -30.72607
C 36.01021 27.39462 6.07403
C 21.72150 -18.72705 -4.13334
C -7.09464 -24.48873 5.08631
C -8.16251 14.80005 -19.25678
C -27.87825 25.58097 -16.47447
C -13.49708 24.03864 -11.50753
C -16.31986 -28.80012 6.96606
C -6.36897 13.62294 -23.26138
C -1.64105 6.73281 13.03138
C 11.92768 -14.08188 25.22737
C -21.13356 -7.28996 -10.66080
C -12.58610 -29.60179 8.11457
C 6.20481 18.40829 18.04084
C 15.70598 13.92850 -20.94015
C -25.34951 23.11492 7.86843
C -1.44182 20.28631 6.59268
C 28.24104 23.01329 -18.57685
C -15.68579 -10.27902 -6.34459
C 9.29831 -3.55837 11.26897
C 18.20684 13.67673 12.15067
C -23.14372 -17.69378 -4.79193
C 8.05529 -8.37266 -16.06525
C -3.88058 28.79497 15.55561
C -4.94851 27.85843 15.13772
C -14.14687 -27.55728 6.08554
C -14.80459 -3.48342 -24.50959
C 32.88670 11.35086 -25.98223
C 3.84014 -14.75581 -10.04356
C 5.57488 -13.01574 -9.27123
C 16.02291 14.29657 8.91866
C -29.57376 -5.84301 9.11975
C -26.35790 5.91399 21.27378
C -16.35471 -24.51243 14.73846
C -15.70491 -23.45762 15.11494
C -21.08182 -17.33549 -1.87581
C -6.22563 4.38936 -24.59996
C 18.37899 12.70566 22.99199
C -12.89970 19.21696 -15.54017
C 30.21963 18.96729 9.76533
C -25.67623 24.20829 8.53803
C 5.19345 3.46329 2.69577
C -27.23100 25.59303 -17.94315
C -10.77709 -27.98229 7.24352
C 34.32102 26.31666 4.58122
C -22.58639 -0.96297 18.45390
C -7.46933 4.07236 -24.98634
C -13.91317 -17.54833 -6.99710
C 18.21655 12.33085 20.78106
C 17.20120 3.02566 -4.50042
C -12.36323 -24.97433 2.53999
C 2.43639 -5.05372 20.58932
C -12.24552 20.97516 -20.89714
C 25.33061 -27.27908 -14.35167
C 13.79388 12.91262 28.75286
C 16.29658 2.26663 -5.16946
C -25.48010 9.20226 -21.26527
C -17.54964 -2.06413 -16.04891
C 17.55351 14.87747 -11.00182
C 34.00513 16.65981 10.19065
C 5.12370 15.25631 11.95844
C -19.40259 -30.33978 9.02388
C -28.68080 -6.62581 9.56734
C -12.90156 -21.18257 15.59125
C 24.60135 12.11806 -25.81853
C 25.31328 -8.01456 28.30134
C 15.27054 13.96972 30.47165
C 31.93215 11.93431 -25.18346
C 18.16001 5.85649 -0.58866
C -6.26716 8.43753 15.66410
C 32.97886 16.82122 9.21295
C -13.79180 -24.31803 14.86534
C 8.33534 -11.95692 24.42632
C 31.43455 24.12021 6.27728
C 13.88041 -9.22928 6.91092
C -22.41712 -5.26390 -15.05643
C -5.64726 2.51574 -20.73393
C -30.90330 -3.79523 9.10737
C -14.83479 26.36692 -11.54634
C -11.55011 -12.30888 -6.28220
C -13.69061 4.76083 17.47014
C 23.76446 -13.46458 1.46278
C 17.97040 9.01801 -17.41039
C 10.24858 -7.14085 7.94400
C 6.01239 -26.83118 10.87132
C 3.67966 23.01806 20.11314
C 25.44573 -29.87102 -19.94420
C 2.68494 -12.45670 -15.17625
C -19.38242 28.55953 -10.08850
C -27.85548 -18.57226 -22.67589
C 6.77346 -25.28564 13.80199
C -26.09994 25.51214 8.91947
C 35.33641 27.51333 7.26828
C -9.34054 -30.60907 4.86907
C 12.02454 -16.24788 0.96536
C 7.98207 19.30819 12.79514
C 4.93598 -12.44791 -22.02826
C -0.84241 31.69703 11.29299
C 4.96049 -11.55795 10.37527
C -28.01924 12.79404 -17.64056
C 26.46340 -15.74972 2.51462
C 4.70278 -13.16374 2.82345
C -4.78678 2.06474 -25.30328
C -15.09318 -11.38229 -6.20583
C -5.69095 15.20228 -18.57932
C 31.67797 19.25744 9.10310
C -15.69229 -8.59641 -5.34003
C 19.20791 -17.84219 -3.26947
C -22.19932 -17.36743 -2.51236
C 4.36850 2.64144 3.05164
C 29.64534 26.72168 -16.81073
C 12.76284 -1.57247 11.78329
C 7.42678 -31.34637 -17.94772
C 14.78265 14.66692 -22.13391
C -20.80578 4.56786 16.59395
C 18.23168 -13.94634 -23.62579
C 0.55837 10.76903 14.88025
C 7.20707 -31.12617 -16.63712
C 20.33615 -18.31430 -3.94359
C 7.71470 -30.11833 -14.31714
C -9.12528 19.42399 -7.63260
C -20.26554 26.50673 -7.17102
C 0.45334 -8.38801 18.09147
C -16.40038 -3.76416 -19.36033
C 17.64949 16.23982 12.53718
C 17.80337 15.99758 25.83521
C -5.72047 18.91815 7.46930
C 39.10384 29.05206 4.41671
C -3.76255 26.50865 13.28687
C -5.86474 2.67870 -22.11293
C -15.53818 0.35116 18.53640
C 1.00491 -0.08331 28.59674
C -23.15671 -17.19153 -6.80413
C 17.09681 6.19918 -12.45428
C 18.94314 13.98111 -8.41373
C 2.83695 -14.45787 -10.79789
C -17.95372 17.58700 24.15338
C -11.48754 5.02567 16.33141
C 1.94281 -12.44602 -14.11624
C 26.44063 -25.60134 -12.82940
C 24.36493 -16.12552 -0.12578
C -25.00125 -3.58622 -11.03035
C 0.22812 -0.03838 30.95608
C -20.75677 9.06938 21.65534
C -29.11657 2.77296 -26.87470
C -17.41113 -29.55680 7.29440
C -14.57256 20.34177 -12.54545
C 7.56678 18.55139 18.27039
C -24.28047 8.84242 -20.97376
C 18.53514 10.42782 -11.09559
C -28.03391 4.64027 -4.21442
C 25.32108 -12.09084 29.58863
C -10.17446 -31.49813 4.19124
C 16.42899 -9.14680 7.28059
C 1.36054 22.90338 6.59961
C 9.42543 -8.54683 -19.82605
C -12.15045 -25.85677 3.55525
C 25.74058 -10.34223 27.83312
C 18.07150 13.55895 -9.21057
C -10.06293 24.89750 -11.58552
C 26.62358 -7.42638 24.99788
C 15.13475 -9.38488 7.26054
C 14.72027 13.58934 -21.85911
C -22.34495 7.44876 22.40199
C 10.80492 -7.97281 6.99639
C -5.63030 1.64741 -24.57805
C 23.60627 -32.55987 -4.64326
C -6.56671 15.30749 -21.03955
C -14.02612 -13.36896 34.75067
C 10.38369 -2.66930 12.08692
C 25.26074 -11.43784 28.47300
C -19.55218 -12.76865 -9.70069
C 27.39641 -12.09366 -28.55265
C 16.32299 17.59529 29.08834
C 17.55987 18.50744 25.71520
C -10.41948 17.75745 -17.64452
C 16.93558 8.33034 -12.33762
C -12.60628 -31.81854 -14.38874
C -18.79705 29.16736 -11.07095
C 15.39592 13.65878 26.49694
C 25.91703 -30.74009 -20.76952
C -0.01969 5.42319 16.01973
C 4.59366 -15.29742 -0.35898
C 18.27352 11.76510 -10.99885
C 17.53907 19.49133 24.85046
C 26.96404 17.89274 9.55936
C 1.23106 5.62898 16.06355
C -16.40775 17.85833 24.35254
C -12.83181 -24.36860 1.01531
C -27.78913 11.99007 -20.37422
C 3.23187 -6.31481 20.56488
C -31.69854 -1.70195 12.70583
C -31.24172 2.16971 -3.59811
C 4.33248 -7.04168 20.23710
C -2.10016 17.97233 8.63291
C -5.58685 17.63905 -22.72094
C -0.89075 -27.51080 13.44853
C -0.69529 21.21740 6.78460
C 18.56621 11.81003 21.84126
C -15.34743 -27.99782 6.43820
C -12.75903 -29.07392 -10.07897
C 17.03782 13.58680 24.59448
C 3.73010 -14.85558 0.79819
C -12.11827 -12.54513 -4.97550
C 4.24596 -13.42540 5.28684
C -13.04571 -26.89660 5.44330
C -28.49815 -19.32850 -25.78863
C -21.10026 -19.81497 -27.39860
C 17.00513 14.15131 12.02262
C 15.22524 -18.02910 -0.03368
C 19.37362 13.40045 12.75151
C -2.60859 16.92464 9.05408
C -18.98483 26.03116 -6.81681
C 0.85780 -2.66429 -0.08289
C 25.96760 -11.57260 -28.50997
C 0.50001 2.20764 7.66630
C -12.62324 -13.81210 32.91580
C -3.16629 6.04625 26.37273
C -26.07568 -16.76733 -24.53095
C -27.76673 -19.77901 -24.81422
C 1.85449 -11.48087 -15.41725
C -8.08038 7.06002 16.50093
C -3.26631 -30.09444 16.15180
C 34.34900 19.19332 10.20395
C -29.74910 -4.42658 9.20188
C 30.05494 20.98977 8.01852
C -7.66298 -29.30583 -7.84439
C -6.53025 -28.78174 -7.46958
C 21.47138 -14.76095 1.19145
C 5.25373 -11.06614 -21.98221
C -15.23807 -12.76565 -5.87904
