686
C686 1000 K last frame of liquid_carbon.lammpstrj
C 0.72036 -1.64014 10.05540
C 0.31404 0.72589 -0.99022
C 1.72850 -1.40316 4.65913
C -3.66183 1.16953 5.61868
C -1.27538 -1.18208 7.50005
C 0.17225 2.77250 -7.71010
C -0.01095 0.22204 -2.37881
C 3.74181 0.25998 -0.89918
C 1.60899 2.43446 1.34400
C 3.38538 1.19323 -3.55202
C -1.47325 0.30881 5.50536
C 3.63301 -3.08430 1.25265
C -1.73962 -4.34849 -4.81948
C -0.73191 0.48984 3.25977
C -6.37835 9.07400 3.28966
C -4.04086 -1.92057 8.45837
C 5.85904 -1.06455 -1.27238
C 3.02586 -6.75951 -6.53485
C -1.83395 3.66095 -0.29766
C 6.08785 -3.21409 1.42415
C 8.48489 -5.95505 -1.51760
C 7.59044 -1.04939 1.30395
C -3.13390 -5.10969 0.44045
C 3.62503 -1.31806 9.85617
C 2.17535 -0.11682 5.34742
C -2.91995 -1.51159 9.29847
C 2.90072 -3.80131 -8.80922
C -4.70724 -1.31478 -6.23753
C -4.07322 6.01832 -2.84937
C -4.10008 -0.66758 -0.03227
C 0.36424 -1.21736 -2.50457
C -2.88269 -3.61069 -5.09589
C 0.09792 -6.03229 -0.36939
C 3.72653 1.80694 8.38694
C -2.81461 2.44826 -5.63539
C -7.17712 0.97723 -2.76718
C -3.33567 6.59279 2.90148
C 4.18242 -2.29296 -0.09732
C 2.85374 0.29724 -11.10674
C 2.06971 -7.67544 -5.89168
C -4.82910 0.86595 -1.58865
C -2.80415 3.04693 6.93232
C 0.79865 -3.42637 5.12597
C 3.39244 3.74376 -6.18653
C -1.51230 -1.25784 8.86140
C -5.84176 2.75121 -2.89009
C -1.74687 4.29546 -6.44789
C 0.54193 -6.82586 3.11092
C -8.77106 3.09520 -0.24920
C -3.22129 3.85857 0.22977
C -4.44519 -6.15478 -5.32513
C 2.06438 0.42133 -5.63576
C 0.70365 -2.59555 -10.01226
C 1.86782 5.53130 5.03041
C -0.56988 -3.70098 -5.51062
C 8.13824 -4.11801 -6.40996
C 2.89632 -3.39654 3.58513
C -1.67216 -5.86934 -8.54321
C -0.36137 -0.70032 -8.06263
C 5.22806 -1.72567 5.22568
C -6.02100 1.91996 4.67237
C -4.71528 -7.50344 2.89059
C -5.11015 -3.74307 0.98583
C -0.05594 -2.47189 -0.78623
C 2.79736 2.18052 -1.62677
C 1.62236 3.17009 -3.43028
C -1.86731 5.81977 -1.22132
C 8.65280 1.45379 5.22679
C -1.23280 -0.61665 -9.30534
C 0.32692 -2.20068 -3.59119
C 0.61273 -0.31146 -10.94508
C 4.24926 1.91822 2.94072
C 2.48289 2.46577 6.34120
C 4.91576 -1.07148 -4.83836
C 2.57548 -4.78296 3.38640
C -0.86770 -0.94473 1.22560
C 2.27747 -2.67842 11.57155
C 0.91909 2.00506 -10.94663
C -4.07279 -1.09277 5.29475
C 0.10906 2.98634 8.93858
C 7.93827 -1.20752 -3.96600
C -1.49225 -3.09916 5.58656
C 2.20271 4.99631 -1.87471
C 5.24762 3.75546 -8.69924
C 1.87623 -1.14681 -0.46019
C 7.12577 2.38562 -7.73325
C -2.22813 0.48712 3.40101
C -5.21555 -0.37744 4.76756
C 7.26781 2.29557 1.91828
C 2.73639 4.80519 1.63241
C -5.16671 7.65936 -4.07685
C -2.96965 -0.01042 2.31890
C 5.20083 1.90424 -5.99782
C -1.36426 4.08193 3.57907
C -0.40482 5.06588 2.99915
C -2.00204 9.28437 0.19808
C 2.64232 -5.11142 2.02894
C -0.59953 0.28269 -10.50547
C 1.26624 4.07760 -2.34434
C -6.12714 -3.51209 -2.44658
C -0.48404 5.23156 -3.43560
C -2.56203 -3.89551 -9.21096
C -1.74458 9.16120 -1.22070
C -3.38710 1.28452 10.86692
C 4.97146 1.01523 -1.42736
C 2.03505 6.44462 -0.03184
C -4.55480 -6.18585 5.75720
C 10.70851 -1.45174 -1.00415
C 2.73082 -0.55940 10.72593
C 4.49422 8.36757 0.86422
C -4.57702 5.87720 -7.62048
C -9.04097 -0.85678 3.80596
C -3.20075 7.08389 4.19395
C -3.76334 6.02989 5.01091
C 4.70063 -3.66800 6.14544
C 5.71614 6.65926 1.72828
C -0.00352 -4.89090 -3.65865
C -4.49736 -7.86606 1.55839
C -7.57749 -3.00613 3.40261
C -4.37160 -1.91073 -3.79234
C -4.94285 -0.87603 -8.40743
C -6.38863 -2.67960 6.03762
C 1.66234 1.76938 -6.25789
C -6.06389 3.70799 -6.98659
C -9.08503 1.27462 5.44786
C 5.42506 -1.54569 0.01204
C 3.32096 -5.18934 -0.17110
C -4.34041 -6.81565 -4.11999
C 3.93392 2.11460 1.54947
C -1.96435 -1.76318 -9.77014
C -0.46071 0.95235 -3.34419
C -1.76463 2.29842 -0.38951
C 6.13099 1.98042 -4.92346
C -8.71653 2.45321 2.06620
C 2.54948 7.14758 -4.55570
C 4.52306 -0.74668 -8.50658
C 5.35903 1.42798 -9.04936
C 0.82359 -8.82878 -2.93620
C 1.14437 8.68545 -0.01853
C -8.20061 3.24845 4.59451
C -2.43101 7.49640 -8.33675
C 7.10293 3.61725 5.49298
C 7.73799 0.35869 -0.76902
C -3.03680 5.53253 8.52329
C -0.29236 -1.80947 3.30972
C -5.30931 2.63028 -4.24866
C -6.93971 -2.62557 -0.45722
C 1.00153 -6.73692 1.67282
C 5.29806 -3.61372 -4.67497
C 5.87575 3.52844 6.39814
C 0.61397 4.10514 2.94190
C 0.39840 5.57183 7.06656
C -1.20086 -9.02151 0.14449
C -3.52530 -1.99267 -6.83057
C -4.80967 -0.21609 9.94090
C -7.60491 2.00821 -6.05124
C 5.56896 -6.97496 0.32558
C 2.54887 0.70200 10.20437
C -6.90480 0.06168 -3.75978
C -5.11262 -0.80028 8.61817
C 0.39073 3.44767 5.90097
C -5.60911 2.08409 9.90272
C -0.55218 -1.23803 10.08288
C 3.80952 2.35715 5.46191
C -0.86065 1.37024 -4.43718
C -6.88642 2.45773 7.83512
C 6.86162 -4.25974 -0.67458
C -3.66895 1.39017 -5.34159
C -1.68120 -4.29279 -1.43745
C -2.24608 4.97768 -10.83826
C 7.23500 -5.54131 1.30952
C -3.96176 -3.74586 3.05788
C 2.41196 -5.35354 -3.64776
C -2.76751 -8.12353 -2.98813
C -4.20146 4.60442 -5.67370
C -9.25548 -1.31032 -2.19363
C 0.95078 6.96618 7.12072
C 6.21981 3.19330 -1.30023
C 1.71371 1.74976 10.10120
C 1.32565 5.05059 -4.89660
C 8.40505 -1.19545 5.79563
C 8.30665 4.38297 -0.36642
C 3.78681 -2.71098 -8.86245
C 6.41798 0.95966 2.28926
C -2.04079 -3.25172 4.32875
C 7.49816 -3.18877 -2.61164
C -0.16617 -2.48637 5.74259
C -0.65040 5.24418 7.89528
C -8.42812 3.81865 -1.37234
C 3.39077 -4.64439 -2.87128
C 6.70478 -7.46643 -2.77739
C -2.61612 -4.69526 7.21931
C 5.22608 0.69055 -6.65034
C 6.29030 0.30052 -1.18796
C 8.01229 2.77684 -2.90488
C -8.95271 0.76885 -1.14650
C 2.84483 -2.23776 9.00264
C -2.30339 3.09044 8.33570
C 0.08455 -8.48621 -5.22734
C -8.36543 -1.49476 -5.31461
C 3.03242 4.40129 -0.72929
C 4.98106 2.49251 0.65478
C -0.48101 -3.46667 -1.69751
C -1.43716 -8.40693 -3.23947
C -0.29218 -8.91146 -0.95909
C -4.24652 -2.55674 5.20779
C -1.25149 -2.95644 -6.75382
C -3.63931 6.15033 -5.42459
C 0.39029 8.54434 -4.10978
C 10.35722 -1.10460 2.68895
C 5.86851 1.91086 -3.43783
C 5.12192 -6.66525 -5.04229
C -7.14258 -5.88438 -3.21836
C -1.81439 -3.49043 2.03897
C -2.58289 -5.69629 1.69721
C 5.55541 -3.17813 5.05777
C -0.61463 1.21093 11.35691
C 0.99305 -4.77275 5.28138
C 0.06964 7.19455 2.67341
C -2.22906 5.88469 -4.86367
C -4.27536 5.90889 7.78505
C 5.23766 5.57610 4.37529
C -9.81931 -3.40211 3.49254
C -6.85256 4.94667 3.45671
C 10.84690 -1.05310 0.39929
C -2.41263 0.92803 4.76316
C 2.07169 -8.13281 4.60250
C 4.52337 -4.91343 6.87786
C -3.11713 6.63252 -9.36612
C -0.85588 3.48728 6.44654
C -2.61272 7.42516 6.42085
C -1.09466 7.33170 -8.18709
C -6.18513 -6.59228 -2.66258
C 2.62190 2.21078 -2.98714
C 4.51774 8.31812 -3.75675
C 3.19909 7.28813 6.45706
C 7.03002 -1.67665 7.60650
C -3.14059 -2.48093 -9.26177
C 4.83834 6.88857 -6.84889
C -0.73891 -2.18305 0.41637
C -0.37214 3.04105 3.20246
C 5.45124 0.21455 8.32320
C 7.83770 2.58497 5.98075
C -8.53086 2.50421 5.70255
C 6.03265 2.43105 7.34996
C -3.84899 -5.46698 -7.51397
C 7.54669 0.52778 7.19926
C 5.42246 1.22096 3.27636
C 6.12709 5.39235 2.00190
C 10.15682 -2.80239 -1.34820
C -4.87942 5.10419 -9.85530
C 0.84934 -2.44992 7.98855
C -6.99832 6.85793 0.67687
C -7.56091 0.61573 -6.06423
C 9.89960 -2.62055 -3.85522
C -4.88499 -7.04242 -2.82455
C -9.73650 -2.09176 6.90750
C -2.74566 8.70581 -6.02512
C 0.58525 -4.84244 -8.85973
C 1.92061 -8.68921 -1.97745
C -0.83459 3.06017 -6.75735
C 2.40553 -8.48491 -4.83495
C -4.67685 -1.70946 -2.37999
C -6.01221 4.54352 0.24147
C -1.53186 -3.34332 0.68356
C -10.42615 -3.47972 4.82914
C -5.61214 0.09522 -4.43712
C -4.25345 3.19844 -0.64041
C -4.42675 10.25704 2.34199
C -6.77477 8.04741 2.69471
C -2.75662 -4.42226 2.45624
C 6.63311 -0.32316 7.81990
C -3.72045 4.61636 1.31825
C 9.74413 1.18574 -3.54001
C -1.28163 -8.67461 2.65231
C -7.73779 -1.04140 8.00006
C 4.11706 -1.39425 6.04165
C -8.80046 -4.75084 0.10370
C -6.38009 -1.02804 1.17999
C 8.52667 -4.25293 2.87982
C 4.85647 -6.95614 1.57151
C -1.83246 8.97386 -3.93921
C -7.23604 -1.57874 0.25929
C -3.78760 8.23408 -0.85926
C 0.21805 7.16745 4.17687
C 1.31129 7.52338 -2.19171
C 6.34978 -4.53818 -4.96177
C -3.68900 4.69366 4.43737
C -2.65895 -0.02608 11.10006
C 5.55219 8.26805 -1.38521
C 8.64525 1.97411 1.53512
C -6.96186 -3.50547 -8.16562
C -5.07976 -2.94913 -1.65221
C 1.55508 2.40079 8.78373
C -0.01119 5.47157 -4.70405
C 5.59854 -6.57056 2.77275
C -8.71895 3.56929 1.18116
C -5.60014 4.38860 2.77894
C -2.16067 10.25407 1.22028
C -5.36941 5.10914 7.93551
C 6.35739 -5.83437 -4.53639
C 0.99881 1.57299 -7.42392
C 1.02412 -5.87156 -7.87157
C -7.98350 -5.25135 0.97141
C 2.66708 1.11129 -0.47040
C 0.40806 -1.61563 -6.14277
C 1.54283 -1.85174 8.98128
C -8.45443 -3.92057 -2.28715
C 4.49020 -5.05578 -7.12913
C -6.57034 0.42287 3.01115
C -4.53425 1.67641 7.73932
C -4.70402 -7.34166 0.21888
C 7.81802 -7.00306 -0.82782
C 0.62418 1.80979 11.06361
C -2.40644 4.09115 4.57013
C -7.08496 -0.24295 1.99961
C 2.33627 7.27427 3.18092
C 5.65765 -1.64039 -2.68040
C 4.73585 3.19312 -6.57700
C 7.10596 3.83214 4.07296
C 9.67326 -4.07772 0.78524
C -6.25315 3.05522 10.70470
C 3.42735 2.36477 4.02369
C -4.29238 -0.37410 2.31556
C 2.69419 3.57535 3.67240
C 7.46926 6.71478 -0.11088
C -7.00878 -0.34853 -6.93535
C -5.62749 -3.23959 4.90879
C 1.20694 2.21344 5.69289
C 3.82332 -4.45599 8.13523
C 5.05539 0.48811 -8.07538
C -2.78564 -7.35466 4.70647
C 0.05757 7.46830 -7.68992
C -2.26495 -6.91406 -6.39058
C 10.55341 -0.32823 -1.82625
C 2.20939 7.33752 7.34872
C 9.13883 2.72225 -1.92187
C 7.02581 -0.25632 2.53162
C 4.13445 -3.21495 -1.31224
C -1.69902 5.97889 1.23049
C -2.68049 -8.65493 2.69743
C 2.76703 3.43981 -9.63516
C -3.89157 -4.21740 7.20798
C 4.40609 -0.04985 -5.69221
C -1.32545 -6.33042 1.86598
C -8.16082 4.92031 1.38522
C -5.00258 7.40034 -0.94541
C 5.36453 -7.84236 -2.99258
C 3.39603 5.12418 -6.08967
C 6.12332 -3.63903 3.90034
C -8.99244 -2.24760 -3.03838
C -5.53317 4.01856 -2.33091
C 1.21456 -9.17147 -0.71450
C 1.83458 -5.41586 4.41670
C 0.47440 -4.55780 -4.99209
C -0.63407 7.46050 5.17276
C 10.10149 1.87038 -2.27910
C -5.87029 -4.20311 -8.11221
C -3.48916 -3.39673 4.34577
C -2.65029 -8.59341 0.19282
C -3.68931 -7.95834 -0.61937
C 1.46317 -10.71262 -4.26036
C -6.15648 -2.99821 3.43344
C -2.69151 2.39020 10.69690
C 9.45021 -1.96036 3.55796
C 1.51405 6.57397 4.19420
C -7.94723 -5.14732 2.42399
C 8.30485 5.77180 -0.42231
C -3.59301 -0.18112 6.52601
C 3.67937 -2.95235 8.06387
C -5.61883 2.64290 -9.93861
C -8.51465 -1.08832 0.22067
C 3.77821 7.20681 3.18061
C 6.47901 7.22717 0.66883
C -5.89975 7.35708 0.07282
C 4.02973 -2.57933 6.78681
C -5.12593 6.78855 -2.22210
C 7.93994 -1.92106 6.79566
C -5.55100 2.45426 8.49643
C 0.72054 -5.87559 -1.53660
C -5.42239 -6.10037 0.41730
C -0.16530 4.52606 -2.26573
C -2.18666 -0.57889 1.29801
C -0.23815 1.76232 -0.19771
C -0.62361 8.99366 -3.16947
C -8.28973 2.51213 -5.00330
C 10.87444 0.36519 0.94288
C 9.47267 2.30795 0.50500
C -2.05663 6.59112 -0.06693
C 3.31353 -4.66494 10.55765
C -3.57779 -7.93148 3.51198
C 1.45760 0.20520 -0.46316
C -3.91057 -1.86282 -8.28897
C 7.25574 -6.19321 -3.47131
C -9.20851 1.71138 -0.01272
C -7.72244 -3.86716 -4.42536
C -8.47157 -2.58620 -4.34119
C -5.26543 -0.20897 3.38374
C -5.02189 0.96770 5.07813
C -7.95670 6.18963 -2.01105
C -3.92766 9.15458 -5.31715
C -1.07943 -8.18517 -4.60101
C -5.51925 -5.95617 4.77226
C 9.61447 -3.90052 -0.58651
C -3.84039 6.60195 -6.78396
C -8.02354 5.09125 -1.17367
C 3.54228 9.27849 0.63250
C 6.34483 4.96858 3.50238
C -3.06589 3.18365 9.56801
C -7.34224 5.31765 0.27056
C 7.78478 2.81868 3.33379
C 6.64066 -4.22706 0.75517
C -1.58842 7.15662 7.35714
C 4.33609 0.93131 5.48407
C 8.61963 -4.05587 -2.65255
C -0.04728 -3.39766 -2.95446
C -0.97781 -6.34082 5.84490
C -2.21798 -5.26113 -2.62173
C 4.06080 -2.92630 2.54134
C -2.66322 7.96479 0.17494
C 3.20646 0.42417 -4.85018
C 1.41502 -1.46004 -10.42984
C -2.09475 -0.31326 6.66105
C -2.64051 -2.78444 -6.18950
C 4.98452 -6.87308 4.06503
C -10.05499 -2.38995 2.49455
C 6.42702 -1.93851 0.88792
C -8.46705 -1.54483 6.93981
C -8.74661 -0.21429 1.53945
C 5.42562 -3.08647 2.77510
C 4.42212 -0.30633 9.21888
C -2.08782 7.58496 5.10988
C 3.54494 0.86886 9.32880
C -9.59353 -1.12335 2.52296
C 3.89574 7.88093 -4.79677
C -1.36296 -3.93865 -9.74118
C 0.47323 8.01851 -6.58424
C 7.18691 -4.60088 3.41382
C 5.04382 -0.57444 -3.54236
C 4.60587 1.84544 -10.19626
C -4.75811 4.67541 -3.30928
C -9.07117 -0.66474 -1.03714
C 1.21635 -9.24747 -4.37362
C -1.84385 5.64976 -3.53896
C -0.18053 -4.57309 7.18496
C 8.31277 -1.43967 4.43285
C -8.99257 1.27004 1.28173
C 1.38785 -3.69777 -9.12883
C 0.71355 -7.60148 -6.14797
C -5.33753 -4.02034 -4.57681
C -9.07086 -4.28969 -1.09989
C 6.44639 4.44028 0.95371
C -6.35521 4.03898 11.44696
C -1.72211 3.79730 -10.70080
C 4.64449 -6.21716 6.41380
C -5.84300 -2.61888 7.30057
C -5.75629 3.49651 4.77090
C -5.73494 -4.62656 5.46996
C -2.21649 -4.12135 -0.15667
C -8.38127 1.44191 -2.21375
C 4.54906 5.53947 -6.94822
C 2.75032 1.87286 0.92821
C -3.69773 4.31885 9.18305
C -5.40877 3.92201 -10.01795
C -5.04132 -4.67478 -7.13154
C 4.55494 6.86845 4.42159
C 0.57875 8.49278 -1.29262
C -4.15443 -3.32741 -4.23498
C -6.76375 -5.98538 2.51083
C 3.18975 -8.34925 -2.45908
C -0.62893 6.15151 2.19184
C -0.39783 1.66496 -10.56334
C 1.03179 -1.78286 -1.33966
C 7.09408 -0.87263 3.75106
C 4.26523 -6.07061 -6.17626
C 10.60027 0.96560 -1.30085
C 3.80389 -1.43113 -9.55408
C -5.44269 1.23303 -9.86985
C -3.28882 10.37451 1.78856
C 1.64532 -9.47839 0.48613
C 1.50743 7.77837 -3.66843
C -2.22287 -7.74352 -5.23465
C 10.01094 -3.25333 -4.99321
C 0.91729 -9.66715 1.64460
C 4.29017 4.59544 4.87141
C -0.15206 0.09918 4.73309
C 5.07915 -3.00279 -2.30460
C 2.39408 -5.85331 -7.58681
C -5.68381 -6.45055 3.41239
C -5.04689 4.69923 -6.96654
C 7.64212 2.13131 -6.59383
C -4.94440 -0.80882 1.08783
C 10.00611 -0.19721 -3.25277
C -2.94576 5.64678 1.95164
C 8.55477 1.91550 -3.95715
C -8.05127 -4.99630 -3.51154
C -2.66062 5.83654 -2.44955
C 0.33651 1.86865 1.22554
C 2.77143 5.26256 0.38165
C 2.54757 2.49053 7.77843
C 0.23668 3.18761 -9.11404
C 5.11004 -2.72373 -6.77969
C 10.24526 0.25775 2.33227
C -1.21380 -2.91206 3.22598
C 2.01951 -9.12066 3.78628
C 10.75047 -1.89829 1.64640
C 3.36583 -6.66259 -0.08760
C -7.38012 6.77407 -3.00341
C 8.50897 0.24153 6.03137
C -0.18177 2.86051 10.31473
C -4.66249 -0.58056 -1.48325
C 8.33239 -4.52630 -1.07012
C 0.91550 4.81429 5.94541
C 8.07932 -0.46848 0.17166
C -3.28021 -8.60448 1.46518
C 4.52480 -7.95129 -1.85614
C -6.86327 2.76235 -7.10598
C 10.29545 -3.28836 1.80416
C -4.51469 -3.02427 7.74414
C -5.03749 -1.17911 -4.75122
C -4.37432 6.03100 -9.11175
C -4.01579 1.80441 -1.01851
C -4.83714 3.92454 8.46406
C -8.48042 -4.08440 3.24628
C 5.41046 0.61616 4.60200
C 8.53113 -4.79033 1.60425
C 8.65584 1.77136 3.77699
C -5.44145 9.95285 3.11210
C 2.04978 -2.74607 4.57551
C -8.06123 -0.19641 -4.81861
C 2.81215 -1.12527 -10.54267
C 1.57303 0.72602 -11.21084
C 0.31590 -1.35414 4.54518
C -4.51222 0.28461 7.63113
C -1.13767 5.46012 -5.63452
C -3.11874 7.76544 -7.17945
C 2.22753 3.01982 -5.77520
C -4.74827 1.08864 10.41771
C -1.32526 -6.54828 -7.27179
C -0.37418 -8.73130 -2.36736
C -8.04613 2.35833 3.51810
C 5.46084 -4.07239 -6.98659
C -0.46609 -0.73183 2.42047
C -4.77872 -5.03511 6.51456
C -5.42901 4.01299 -0.81390
C -1.35231 2.08824 -5.56298
C 4.45078 -3.68205 -3.52119
C -3.28040 -6.61221 5.80516
C -7.55144 -2.07238 5.83635
C 1.45705 7.34260 2.12679
C 6.73158 -5.72996 2.59110
C 5.87291 -0.65842 4.59129
C 10.40896 1.33750 0.06131
C -7.74503 -1.63909 -6.67565
C 2.37489 5.84948 -5.18154
C -3.57185 -0.86112 10.33657
C -3.22030 -7.63570 -4.23585
C -2.87223 -0.00653 0.16305
C 1.49016 3.67067 -4.77517
C -2.25295 -5.98804 6.60931
C 5.59922 8.10435 -0.12629
C -2.81900 1.42477 -0.44793
C -0.76645 -2.68040 -10.08182
C -10.43407 -2.97346 5.97586
C -0.33173 1.83071 2.51875
C -8.66529 3.10894 -3.98488
C 1.93639 3.66992 2.36458
C -7.96790 -1.98685 4.40599
C 1.04937 -0.36289 -6.33661
C -6.60228 -6.05024 1.11122
C 3.52557 3.23508 -1.33236
C 0.09860 -6.64625 -7.18180
C -7.68097 2.32516 6.85446
C -0.98951 4.60392 -0.95160
C -3.73629 2.15075 6.69453
C 0.16142 -2.42065 -4.97805
C 4.55296 7.85858 -6.10044
C -1.53210 -3.81245 6.90843
C -3.80183 6.47557 6.39981
C 3.68822 -4.98615 9.37386
C 0.63916 0.19115 -7.47151
C -3.01179 8.97411 -3.23068
C -0.18783 8.36442 -5.43189
C 7.08517 -2.07529 -3.28929
C 1.53107 7.37063 0.76340
C -3.77243 -7.63150 -2.04992
C 4.75212 1.00459 -2.96374
C -0.57050 8.92045 -1.81393
C 1.36359 2.97501 -9.88860
C 7.29857 -8.12619 -1.74690
C -7.18814 6.95225 2.10210
C -7.67398 5.59337 2.55087
C 4.55475 -7.33529 -0.56373
C 1.85494 -11.90810 -4.44386
C 4.74971 -7.77731 -4.25070
C 1.10161 0.79323 5.23762
C -0.50973 -1.85762 -7.12832
C 5.07167 1.56365 7.96472
C 2.78541 -3.90089 11.39553
C -3.02665 3.72699 -6.02648
C -7.00686 4.15472 4.58195
C 5.01176 -6.76577 5.30904
C -5.18175 0.15303 -9.31271
C -6.42440 -3.73936 -3.83059
C -6.48561 -1.47155 8.04797
C -5.22526 -3.44810 2.38903
C 2.36134 -6.41726 1.60573
C 4.93365 8.37717 -2.49659
C -0.57719 -9.23763 1.51296
C -9.26291 0.22909 4.70876
C 1.50235 -6.93714 4.10984
C -2.92366 -5.18154 -8.48937
C 1.12376 -5.74066 -2.83847
C -2.12366 3.79024 5.96923
C 2.92912 4.63357 4.53114
C 1.93194 6.40470 -1.47167
C -4.78608 4.06015 3.86500
C -1.32749 2.31928 10.87793
C -5.59871 -0.79124 -7.11638
C 6.94647 4.06603 -0.38846
C 4.86569 2.50755 -0.86174
C 4.66059 -2.08210 -7.92381
C -7.22954 -3.31590 -1.63191
C -1.48612 -5.36926 -3.74153
C -7.64297 -2.51175 -7.64858
C 7.27969 1.96786 7.10320
C 3.17081 -4.33939 0.95631
C 9.27778 1.27431 2.61858
C -0.91598 3.83554 7.99715
C 6.20644 3.06265 1.09519
C 1.75208 -1.48126 11.30622
C 5.19285 4.34528 -7.34185
C -0.72771 -5.06995 -9.21467
C 5.19520 -2.34650 -5.42471
C -6.79327 1.62121 3.56916
C -4.83058 3.99782 -4.49140
C -4.32376 8.83374 -4.11052
C 8.28567 -5.58315 -2.84869
C -5.07778 4.37301 1.42086
C 7.57850 1.95406 -5.23038
C 1.85265 -4.94512 -5.03765
C -5.55960 -3.16501 -0.30670
C -4.52868 -4.89177 0.41736
C -8.60197 2.95521 -2.56244
C 3.50762 -0.06582 5.91780
C -2.99849 8.82761 -1.87118
C -1.38344 -6.95416 4.57731
C -1.57549 8.90541 -5.31746
C 3.87550 1.07155 -10.96996
C 9.87255 -3.23284 -2.62575
C -3.53620 -6.26160 -6.43385
C -1.87244 6.02302 8.05775
C 3.39225 -1.11437 -0.58187
C 6.11162 2.57619 -8.52267
C 3.38842 -8.23116 -3.95697
C 6.78840 -4.40722 -6.41528
C -1.00646 2.84956 -10.08808
C -5.22174 -4.95378 -5.66361
C 1.54524 -9.90339 2.91498
C 9.26367 3.30495 -0.51162
C -0.03496 -1.85311 7.06916
C 4.58533 3.63966 5.86897
C 4.09100 7.18273 5.65477
C -6.02217 1.55368 -2.17098
C 3.48546 -7.12838 1.34814
C -2.39635 6.22175 -10.41765
C 9.53104 -3.24998 3.02564
C 0.06964 -5.48939 6.14432
C -0.23561 -6.40036 0.86768
C 2.38417 9.40196 0.28108
C 6.42696 -3.60877 -1.68594
C -1.25254 -0.22878 11.00252
C 9.28985 -1.19390 -3.91532
C -0.33798 7.32236 6.64106
C -4.82811 1.34326 -4.77319
C -0.84796 -7.12077 3.18866
C -6.10121 7.29203 -3.01022
C 9.14787 -3.74363 -5.74580
C 4.61683 7.50308 1.95474
C 0.59930 -3.70507 7.89386
C 4.12015 3.30458 -9.54053
C 6.60502 2.82703 -2.62142
C 3.70431 -4.57396 -1.44617
C 3.26717 -4.92581 -7.96497
C -4.31547 6.60343 -4.20855
C 7.03448 -6.68871 0.27211
