686
C686 2000 K last frame of liquid_carbon.lammpstrj
C 0.64207 -2.37639 9.60360
C 3.10347 3.06457 0.92004
C 2.11823 -3.23569 4.10353
C -4.59274 3.90332 3.61707
C -2.26384 -1.71633 6.22051
C -0.28277 4.68846 -8.06591
C 3.56462 2.94462 -3.25308
C 2.40212 -1.25276 1.41938
C 4.50883 3.60952 1.09142
C 4.77304 2.89548 -2.37838
C -1.90233 0.69322 6.78378
C 3.74652 -4.92110 3.22653
C -2.00037 -3.31553 -4.23622
C -2.09611 -0.71270 1.36343
C -6.16489 7.14442 0.81142
C -3.64376 -4.30188 8.41337
C 6.57321 0.22006 -0.72347
C 3.92470 -7.08333 -5.80937
C -0.65121 4.49202 -2.45574
C 6.59567 -2.37813 0.54523
C 7.39338 -5.44278 -1.03076
C 7.26199 -1.63110 2.55464
C -4.19051 -4.18745 -1.22739
C 3.52693 -1.91314 9.08656
C 3.02871 -2.05085 6.03595
C -2.96339 -3.17788 8.86938
C 4.46415 -2.85518 -8.62856
C -5.29922 -0.71171 -8.21755
C -5.71315 6.83039 -2.80889
C -0.64910 1.09922 0.36810
C 1.15106 3.42713 -3.53277
C -3.14721 -2.51045 -4.49264
C -1.01018 -6.24842 -0.76048
C 2.26107 3.69053 7.82931
C -2.97206 4.23375 -4.27237
C -5.66036 3.05559 -0.71728
C -1.79916 8.39933 2.52518
C 5.34454 -0.72471 -2.55043
C 3.71372 0.40220 -8.96315
C 2.88444 -7.82757 -4.89381
C -5.32645 1.04637 -2.46849
C -1.72879 3.08691 6.10527
C 1.37244 -2.18577 1.91803
C 3.53949 6.78088 -4.35586
C -1.68250 -3.39060 9.16169
C -3.59809 4.42258 -1.93419
C -3.15247 3.30495 -6.43403
C 0.68688 -9.24648 3.93432
C -8.18291 5.36605 -0.15723
C -2.48758 5.59356 -0.00758
C -5.08625 -6.53033 -4.22743
C 2.08976 0.65354 -6.10849
C 1.04677 -1.48386 -9.63931
C 0.96873 1.41059 6.48652
C 0.83925 -1.32270 -5.92981
C 5.61427 -3.46252 -7.18168
C 3.27949 -4.03550 4.48725
C -0.59031 -5.32587 -7.00114
C -3.41483 -0.33319 -9.57011
C 5.76448 -3.43751 3.44594
C -5.95502 3.03078 1.58630
C -4.90894 -8.55219 3.13091
C -5.71185 -2.01780 1.53728
C 1.65696 -1.98896 -1.73341
C 2.77130 4.02239 -0.37311
C 0.10114 4.30827 -3.56347
C -1.84867 6.06263 -1.09364
C 5.81783 1.02019 6.22738
C -1.87504 -0.58032 -9.55773
C 0.93289 0.09170 -6.56041
C -0.96264 0.23677 -9.94740
C 4.38957 1.87917 3.03343
C 4.00584 2.09771 7.62259
C 4.27030 0.95340 -4.16214
C 2.84656 -8.38007 4.32535
C -0.99866 -0.32947 0.40752
C 3.05811 0.26010 9.34755
C 0.38534 3.75267 -7.29754
C -6.70439 -0.69098 7.23274
C -0.27745 3.46810 9.70535
C 7.59905 -1.04153 -5.12708
C -1.28732 -5.42861 7.94937
C 3.58294 7.38920 -3.13982
C 3.34503 4.44858 -7.58756
C 1.74150 0.96164 0.11298
C 5.36584 4.20819 -6.18238
C -3.13167 0.11614 1.12892
C -5.01143 1.64163 4.87655
C 6.29445 2.04170 1.21675
C 1.80339 5.03307 0.14894
C -6.25525 5.30645 -4.63839
C -4.72333 0.24531 4.49220
C 5.75538 5.66418 -3.82242
C 0.15808 4.94451 3.54552
C 0.66280 5.49162 2.41403
C -0.17483 9.53670 0.87666
C 1.59921 -6.22273 2.41291
C 0.53747 -0.09515 -9.65391
C -1.50790 5.18013 -5.33541
C -6.99145 -5.19565 -2.61523
C -1.14931 6.68024 -3.23433
C -1.68423 -3.92769 -8.21303
C -1.31938 9.77126 0.08903
C -3.49070 0.28381 9.73951
C 6.28622 1.49904 -1.16680
C 1.65089 6.34751 -0.16064
C -4.95802 -7.22141 5.65408
C 8.86552 -3.63717 -0.07015
C 0.35285 -2.14894 5.58186
C 4.71103 8.36188 -0.05784
C -5.20088 3.87714 -7.97568
C -9.43521 0.79552 3.01388
C -1.82868 8.58283 4.00364
C -3.11917 8.22578 4.48218
C 6.57531 -5.16768 6.12433
C 6.27334 6.68414 0.66282
C 2.32247 -3.34876 -3.58191
C -4.96216 -8.98864 1.54743
C -8.15958 -3.92651 3.53475
C -3.61325 -1.17750 -5.05188
C -4.98680 -3.00799 -8.09030
C -6.60487 -3.39580 6.14562
C 2.37526 1.95251 -5.29518
C -6.46228 1.24064 -6.85520
C -8.51904 3.13562 3.53110
C 6.02931 -2.30503 -0.81687
C 5.46220 -4.50198 1.39778
C -5.36897 -7.01778 -2.88706
C -1.93408 -2.60415 4.97322
C -1.38109 -1.96259 -9.23398
C -1.13631 1.39593 -6.57589
C -0.67962 3.53376 -1.26545
C 6.17426 3.58235 -5.10140
C -8.76097 4.98010 2.02288
C 0.28830 8.42755 -5.56539
C 5.59947 0.28622 -7.22203
C 4.56614 2.46577 -8.08603
C 1.22093 -9.82739 -2.38692
C 1.46546 9.59314 -0.92202
C -7.90304 5.35522 4.19445
C -3.18973 5.44032 -8.55015
C 7.49600 3.24096 4.02363
C 6.55804 0.75399 1.82186
C -2.87947 6.10119 7.43871
C -1.00646 -2.69810 2.11497
C -4.00372 3.17535 -3.85101
C -5.85779 -2.22247 -0.98911
C -0.74869 -6.73432 1.58289
C 3.75902 -1.40594 -4.15323
C 4.43270 4.32176 6.65567
C 1.65640 4.88466 1.55900
C 0.84519 3.58742 7.68857
C -1.35596 -10.15386 0.23720
C -4.13493 -1.13560 -8.81300
C -4.82588 -1.30190 8.88257
C -7.95181 0.84745 -5.03907
C 5.52007 -8.31242 1.69133
C 1.26828 -1.18852 9.91912
C -5.94673 0.05741 -1.60233
C -5.89443 -1.71651 7.98379
C 1.28592 -0.06730 6.21989
C -4.87589 2.52921 8.55919
C -0.74454 -2.43284 9.82795
C 4.91898 0.61084 5.18476
C -2.54099 0.98144 -6.23908
C -6.47818 3.31585 6.72616
C 4.63725 -4.58633 -0.66709
C -5.72107 0.64599 -7.92901
C -1.98230 -5.57566 -1.55863
C -2.59013 4.19259 -8.91042
C 6.69148 -6.83211 3.21657
C -2.83435 -3.15931 2.52395
C 1.95378 -6.80414 -2.49356
C -2.37388 -8.84617 -2.43513
C -7.53732 2.20076 -5.00398
C -8.96075 -1.19836 -2.16430
C 1.00976 5.74884 6.52935
C 7.52490 4.86615 -1.66112
C 0.91173 1.26088 9.86583
C 0.10300 8.00335 -6.78180
C 9.91730 -0.72595 5.27463
C 6.44825 9.02083 -1.80174
C 4.57493 -1.44902 -8.36646
C 3.04109 -0.45053 2.35065
C -5.29817 -2.48941 3.95765
C 6.75646 -5.31312 -3.28960
C -0.81868 -4.31377 8.58147
C -0.97415 5.21813 8.55510
C -8.85195 3.54391 -1.25147
C 2.91452 -6.22341 -1.66675
C 5.44605 -8.54160 0.22847
C -3.48192 -6.39949 7.08135
C 6.62006 1.05466 -6.24619
C 6.87864 0.03210 0.70862
C 8.38135 2.81589 -2.74582
C -9.35723 0.49492 -0.56627
C 2.80714 -3.17281 8.91141
C -1.55185 4.29286 9.41570
C -0.31830 -7.75664 -3.23637
C -7.03805 -3.56984 -4.51096
C 3.81974 6.00594 -1.29139
C 6.17754 2.40778 -0.11292
C -0.13219 -2.86620 -3.04680
C -0.90106 -8.92681 -2.63219
C -0.25436 -10.08195 -0.50630
C -2.96414 -3.05447 3.93754
C -1.30379 -0.99387 -6.23450
C -5.78011 4.94420 -6.02400
C -0.81782 9.36959 -3.54657
C 10.37096 -1.22404 3.96551
C 6.69482 4.52124 -4.11046
C 5.23710 -6.93609 -3.59540
C -6.10337 -5.10647 -8.57373
C -0.12414 -1.48207 0.07597
C -2.92688 -4.91188 -0.64184
C 5.59886 -3.10788 4.70474
C -0.89104 -0.08457 10.27951
C 1.05438 -7.62351 5.88717
C 0.93079 8.71695 2.66196
C -2.23265 7.99561 -5.11928
C -3.69228 6.67746 6.50038
C 5.48170 5.46235 3.27908
C -8.87615 -3.50027 2.38073
C -5.68455 6.06925 5.27444
C 9.85887 -2.14176 1.81065
C -3.26858 3.95011 4.32566
C 3.46256 -8.69590 3.04532
C 2.28366 -5.93092 7.09367
C -4.57702 2.89437 -8.66904
C 0.02260 -0.92975 6.19928
C -1.71907 7.98565 6.02704
C -1.27154 8.09965 -7.32124
C -5.27168 -7.33355 -0.31357
C 2.19906 3.47441 -2.63987
C 6.13254 9.45085 -4.35660
C 3.22478 5.66709 5.26101
C 9.38819 0.58107 5.21850
C -2.35519 -2.86180 -8.56420
C 3.33488 8.44444 -6.58789
C -1.06693 -2.52988 -0.62934
C -3.11038 1.09687 0.22104
C 6.97370 -2.21325 8.23779
C 6.36228 3.49997 4.84022
C -7.90743 2.86967 4.98975
C 4.58725 2.92377 6.70945
C -3.13366 -5.34270 -6.66192
C 4.72848 -1.33025 8.71069
C 5.36218 0.97364 3.85262
C 6.74650 5.46600 1.14861
C 8.98101 -2.74539 -1.35649
C -3.87511 0.96572 -9.46972
C 0.58971 -4.42573 8.66867
C -3.00591 4.21617 -0.59889
C -7.24062 -1.19248 -5.94008
C 7.98847 -2.75659 -3.68545
C -4.46512 -8.13127 -2.71166
C -7.69372 0.26592 4.95744
C -2.74306 6.71410 -8.15962
C 1.65522 -4.87784 -7.68176
C 2.19993 -9.83413 -1.53418
C -0.39318 4.49376 -4.96969
C 2.94045 -9.30478 -4.29273
C -5.04646 -1.68526 -3.34109
C -4.33750 4.60974 2.37417
C -0.74516 -2.78104 -1.80347
C -8.75893 -1.67808 3.65717
C -4.75947 0.74217 -3.93976
C -1.99003 3.04984 -0.75262
C -4.33360 8.31249 2.47295
C -4.28458 7.85060 3.77984
C -3.53725 -4.08960 1.52998
C 5.65542 -2.21517 8.14105
C -2.49513 5.99381 1.32369
C 9.16328 0.57630 -3.02953
C -1.51199 -10.00805 2.95242
C -7.48818 1.65413 5.55605
C 5.02940 -3.20400 7.40009
C -8.39643 -3.95034 1.21854
C -5.86094 -0.16422 -0.09689
C 7.45534 -4.96350 4.84245
C 4.86792 -8.25109 2.83990
C -2.92855 8.98890 -2.17104
C -6.08654 -1.45496 0.34012
C -3.37819 8.92206 -0.81334
C 1.23573 8.09953 3.91414
C 1.63851 8.82340 -3.53333
C 6.63367 -4.81991 -4.63771
C -0.91455 4.17087 5.59318
C -2.87761 -1.03398 9.82566
C 4.55816 6.94879 -2.21381
C 9.52578 1.40088 1.55857
C -7.32275 -4.00858 -10.28799
C -4.19769 -2.88390 -3.51569
C 2.25315 1.43622 9.09163
C -1.29859 6.46208 -4.64111
C 4.82113 -6.88478 4.92266
C -7.85464 6.14779 1.88418
C -2.36930 4.80179 3.61434
C -2.74876 9.31661 0.31865
C -4.84927 5.84001 6.40024
C 5.14266 -6.57582 -5.00553
C -1.50004 1.72252 -9.88675
C 2.00200 -6.09555 -6.90923
C -7.46107 -5.09403 1.03435
C 3.55936 0.81576 1.98296
C 2.17405 -1.74548 -5.70285
C 1.44244 -3.32722 9.14765
C -8.37038 -3.45311 -1.44017
C 3.88924 -4.99649 -7.14417
C -6.16099 0.96993 0.71630
C -3.89300 2.15174 5.83326
C -5.55093 -7.71554 1.02835
C 7.39338 -6.91152 0.91082
C 0.62486 0.07263 10.35458
C 0.49093 4.30443 6.37883
C -9.37313 0.96702 0.71370
C 2.73974 7.69804 2.25379
C 6.27582 -0.95897 -1.40619
C 4.64066 6.00854 -4.70882
C 7.56600 4.12229 2.89121
C 8.34285 -5.44414 2.45030
C -5.40840 1.23996 8.49012
C 3.17886 2.60125 3.93580
C -5.66976 -1.64255 2.93558
C 1.21493 3.65934 5.38981
C 5.76689 6.40631 -2.68975
C -6.43189 -2.10277 -6.43997
C -6.45145 -5.45151 4.47487
C 3.48305 0.50191 5.38201
C 4.77255 -5.50115 6.95231
C 4.86204 1.12460 -8.18208
C -3.18509 -9.02547 4.89357
C -1.30682 7.03308 -8.25846
C -1.48451 -6.44808 -5.14998
C 9.00794 -1.22825 -1.58097
C 2.46395 5.54869 6.52427
C 9.04198 2.25961 -1.42662
C 7.34641 -0.64827 3.58377
C 5.26768 -3.33929 -1.23476
C -0.08311 6.35507 1.46994
C -2.85614 -9.56918 2.68462
C 1.24408 3.32810 -8.34442
C -5.36204 -5.04934 6.68810
C 3.41788 2.04386 -4.27360
C -2.75773 -4.94394 0.64419
C -7.28394 6.26792 3.31225
C -4.42532 7.86205 -0.96076
C 4.20767 -8.96023 -0.25304
C 2.29988 6.64936 -6.82655
C 9.96477 -1.54130 6.33117
C -8.42558 -2.46459 -2.53471
C -5.28208 5.59839 -0.73591
C 2.01518 -9.73628 -0.19127
C 2.47571 -6.95955 6.15311
C 1.29099 -2.72713 -2.94443
C 0.41815 8.07019 5.01883
C 9.34307 0.91373 -1.71088
C -5.53107 -4.58435 -5.91334
C -4.17769 -2.64605 4.55354
C -2.64793 -9.37818 0.20099
C -3.15420 -8.89426 -1.16525
C 4.11310 -11.21307 -5.71740
C -7.29972 -5.10077 3.41722
C -2.86591 1.49074 9.70757
C 10.00432 -2.40406 3.33608
C 2.23923 7.20124 3.55208
C -6.81085 -5.71028 2.21065
C 6.89102 6.33043 -1.80044
C -4.11308 -0.09063 5.80176
C 3.61537 -3.93803 8.00328
C -6.48419 0.46261 -10.67084
C -9.26507 -1.85973 0.24568
C 3.99897 7.13452 2.08322
C 6.67372 7.16887 -0.60805
C -5.17624 6.84840 -0.17302
C 5.83460 -4.40858 6.93294
C -4.68848 7.68114 -2.26159
C 8.16653 1.19459 5.65613
C -5.51974 3.54008 7.83147
C 0.29950 -6.72009 -0.98769
C -6.37520 -6.41237 -0.80882
C -1.71957 5.55710 -2.35820
C -6.00298 2.20614 2.86565
C 2.47534 3.84662 2.03829
C -1.78926 9.74106 -2.42461
C -8.27568 -0.09187 -4.01973
C 10.25925 -0.88860 1.55127
C 8.93131 2.58126 1.13839
C 0.34295 6.62646 0.18020
C 4.02484 -2.89331 6.38217
C -3.72137 -9.23887 3.78733
C 2.81525 1.56328 0.92270
C -3.75721 -2.59939 -8.47217
C 6.12276 -6.47172 -2.70714
C -9.29026 3.42403 0.10122
C -6.65160 -4.78618 -3.84123
C -7.90260 -2.50537 -3.85541
C -7.21196 -0.96905 5.86767
C -5.56876 2.91547 3.85825
C -6.96397 4.75574 -2.46967
C -4.57349 7.06533 -6.61345
C 0.69474 -8.32245 -4.22397
C -5.91535 -6.81354 4.67200
C 8.29928 -4.93719 -0.03698
C -5.06162 5.70960 -6.89475
C -7.94580 4.61642 -1.46784
C 3.44146 8.10825 -0.60427
C 6.49912 4.90960 2.48403
C -2.87972 3.81593 9.07270
C -7.38458 6.28340 0.67799
C 8.32825 2.16585 4.44826
C 4.65267 -5.26020 0.42095
C -0.82630 7.19858 6.88813
C 2.64102 1.87366 4.86634
C 7.65097 -4.75734 -2.25546
C -0.73179 -2.87548 -4.30702
C -1.40114 -7.86563 6.24768
C -1.99492 -5.64702 -2.90897
C 4.98855 -4.55155 2.63690
C -0.67504 7.12208 -0.87585
C 4.89800 3.76728 -1.36250
C 2.42119 -1.78088 -9.24902
C -1.47225 -0.63230 6.67708
C -2.56581 -0.42169 -5.78337
C 5.54371 -6.15026 5.88729
C -9.65400 -1.27616 1.51822
C 6.60174 -2.84243 2.62811
C -6.97473 1.79642 6.86275
C -9.46814 0.02027 1.75223
C 6.36723 -3.38899 1.45169
C 9.10145 -1.47080 7.23218
C -0.91851 8.53084 5.04037
C 8.26079 -2.17661 7.91471
C -9.07012 2.39664 1.03986
C 5.61773 9.47549 -5.56477
C -0.24347 -3.74709 -8.56698
C -3.49287 7.57135 -7.41600
C 8.00790 -3.66434 4.77338
C 5.29472 0.63027 -3.11779
C 3.39578 2.62025 -9.02349
C -6.06995 5.72334 -2.01427
C -9.19879 -0.97846 -0.80350
C 1.53497 -9.21943 -3.63687
C -0.86331 8.82625 -4.81936
C -0.21816 -6.26030 7.53780
C 6.81322 -2.38790 5.21546
C -9.09190 4.77418 0.74712
C 2.74927 -4.15335 -7.90760
C 1.48242 -7.55556 -5.06587
C -3.74198 -6.83768 -4.52030
C -8.75602 -3.14854 -0.06718
C 7.92837 4.76762 0.72218
C -4.75792 0.17222 9.27025
C -1.21683 3.92238 -8.85651
C 3.43032 -5.24430 7.53941
C -5.88836 -2.94053 7.16404
C -5.35307 4.42883 1.32116
C -6.36888 -4.73085 5.79216
C -3.92314 -3.90857 -2.53898
C -8.82076 1.31986 -1.96662
C 3.26117 5.61281 -6.68036
C 5.09797 2.50408 1.94688
C -3.46025 4.79739 8.08003
C -5.74180 1.33156 -10.14000
C -4.45868 -4.95205 -6.82655
C 4.29469 6.23314 3.19243
C 0.32345 9.85927 -1.56241
C -5.22891 -4.47171 -7.84007
C -6.06036 -6.92130 2.23628
C 3.57929 -9.47473 -1.55826
C -0.46751 8.94774 2.16801
C 0.56514 2.31043 -9.04942
C 1.29483 -1.35866 -0.66839
C 7.09216 -0.99721 5.13723
C 3.39857 -6.28215 -6.75221
C 9.02062 0.02807 -0.73412
C 3.43675 -0.90147 -8.99620
C -7.06373 -0.59003 -11.07710
C -3.05301 8.73948 1.65747
C 0.79147 -10.09241 0.33752
C 0.46729 9.46750 -2.85871
C -1.45239 -6.90180 -3.80954
C 7.13487 -3.27876 -4.63362
C 0.64764 -10.30636 1.75093
C 5.50497 4.72021 4.41076
C -0.59303 -2.82950 4.62459
C 4.52913 -1.72808 -3.04309
C 2.89100 -2.65682 -4.72021
C -5.82870 -7.61460 3.44501
C -6.58835 2.46311 -6.14952
C 6.62346 2.28604 -5.37161
C -6.02861 0.79106 2.38482
C 8.84442 -0.74111 -2.82040
C -1.41234 6.84827 1.81610
C 8.51256 1.75254 -3.62257
C -5.70108 -5.31529 -4.65974
C -0.16041 7.15408 -2.36761
C -2.02742 1.82248 -0.04416
C 2.98476 6.80050 -0.49930
C 2.83418 2.42895 8.24490
C 0.60933 3.86426 -5.85034
C 6.01705 -2.15389 -6.56499
C 10.48923 -0.27111 2.83650
C 0.18271 -2.39471 1.25586
C 2.76567 -9.28739 2.09090
C 9.24628 -3.18419 1.30457
C 2.49013 -6.37424 -0.15272
C -6.99076 4.44220 -3.82595
C 4.73213 0.85673 7.54981
C -0.33544 2.14846 9.91621
C -5.68010 -1.38180 -2.01817
C 8.19401 -5.81444 1.02953
C 0.03950 2.03464 7.36203
C 7.14743 -1.21687 1.24720
C -3.62117 -9.27792 1.42136
C 3.10415 -9.37008 0.63151
C -7.23461 0.18750 -6.20949
C 9.01573 -4.32268 2.53416
C -4.91704 -4.02783 7.50766
C -4.48183 -0.61126 -4.10582
C -5.06428 1.52992 -8.85775
C 1.83712 3.33349 -1.31868
C -4.67196 4.78669 7.49107
C -9.33742 -2.14028 2.45160
C 6.47325 0.43272 3.21973
C 7.44067 -5.69746 3.53747
C 9.53908 1.47019 3.97442
C -5.79373 7.80096 2.02919
C 1.23108 -3.07576 3.02285
C -7.89450 -1.29120 -4.51139
C 2.90715 -3.10528 -8.64472
C 1.35004 1.22158 -9.38914
C -0.20318 -2.85469 3.26169
C -3.20873 0.86793 6.25765
C -2.70630 4.44758 -5.77236
C -4.35142 5.03357 -7.82485
C 1.33865 2.91436 -5.17659
C -3.59542 2.61889 9.19109
C -0.37233 -6.09994 -6.00791
C -0.07475 -9.66202 -1.83912
C -8.69889 4.45285 3.32674
C 5.13053 -4.58943 -6.58412
C -2.19378 -1.88783 2.07555
C -4.66830 -6.24427 6.58028
C -5.50445 4.32405 -0.08569
C -3.58305 1.92317 -5.87138
C 3.61952 -4.15842 -2.68412
C -3.87647 -8.12718 5.70112
C -7.51498 -2.21430 5.65594
C 1.93961 8.64571 1.67270
C 5.50032 -7.33646 3.81926
C 7.00112 0.39224 5.93204
C 9.54230 0.09182 0.63683
C -6.47490 -3.41938 -5.73788
C 0.88746 6.92514 -7.35590
C -3.74489 -2.10246 9.36606
C -3.17580 -7.93161 -3.36628
C 0.57151 1.64485 -0.16355
C 2.60370 7.52870 -5.59132
C -2.92477 -7.47442 6.44010
C 5.91772 8.38342 -0.79867
C 0.51086 2.84182 -0.96089
C -0.11870 -2.54331 -9.34439
C -8.51198 -0.05802 3.84693
C 2.31789 3.59838 3.36628
C -8.71715 0.05493 -2.76606
C 1.19271 4.12191 4.16363
C -8.24084 -2.66580 4.44665
C 3.10409 -0.47120 -6.06411
C -7.25987 -5.48660 -0.33313
C 3.79925 4.77913 -1.14656
C 1.00221 -6.68054 -6.04870
C -7.02982 3.87070 5.65767
C -2.80149 4.68203 -2.88966
C -2.97274 3.33986 5.48692
C -0.41559 -1.90002 -5.43301
C 4.45567 9.03284 -6.10589
C -2.81498 -5.41902 7.99907
C -3.09863 7.85196 5.79489
C 4.28980 -3.41406 5.12300
C -2.90057 2.00821 -10.00477
C -3.54059 7.98794 -4.43000
C -2.49234 8.08393 -6.68785
C 7.53920 0.29185 -5.54138
C 1.25182 9.42634 0.68096
C -4.32339 -8.19749 -1.27950
C 5.67863 1.83647 -2.50346
C -1.04236 10.09700 -1.25400
C -0.20671 6.10007 -8.01516
C 6.58800 -7.60352 -0.31406
C -5.28338 6.88318 4.17093
C -6.31095 7.09454 3.24386
C 3.37542 -5.89644 0.83537
C 3.49970 -10.28965 -5.04136
C 4.13779 -7.64697 -3.05516
C 2.65606 -0.52146 6.09704
C -0.51177 0.23955 -6.69131
C 3.06151 4.52489 7.27860
C 4.33783 -0.00869 8.68581
C -5.95787 3.75540 -6.57502
C -6.80868 5.02014 5.07745
C 3.43607 -7.57388 5.35181
C -7.36205 -1.86814 -11.32627
C -6.46964 -6.52940 -2.19072
C -6.32698 0.73747 7.50122
C -4.58401 -3.20326 0.89943
C 0.63637 -6.61407 1.45701
C 6.30856 9.47499 -3.00471
C -0.74646 -10.33100 1.62102
C -9.08361 2.11943 2.60830
C 1.29978 -8.34498 4.74076
C -2.02704 -4.94246 -7.42478
C 0.58519 -6.96140 -2.30151
C -1.26201 2.00277 6.95528
C 1.73655 2.22328 5.69499
C 2.78331 8.42111 -2.68796
C -1.12102 4.98536 3.97869
C -1.45777 1.39209 10.05175
C -5.81799 -2.08780 -7.72687
C 8.28437 4.42530 -0.62203
C 5.31806 3.46191 -0.05295
C 5.62021 -1.07315 -7.48500
C -7.69805 -4.63312 -1.41938
C -2.51933 -4.24804 -3.23996
C -7.59334 -3.23284 -11.22043
C 5.77673 2.61734 5.91489
C 2.90604 -5.72123 2.31890
C 10.03118 1.09625 2.76186
C 0.36288 4.48961 8.73929
C 8.35851 3.77204 1.72524
C 2.56756 -0.92703 9.64896
C 4.63218 5.56589 -6.05000
C 0.28378 -4.62359 -7.80937
C 3.89240 -0.34470 -4.87846
C -5.90687 2.27936 0.46737
C -4.34548 3.40577 -2.50779
C -4.39320 7.01049 -5.00509
C 6.69959 -6.65913 -1.31806
C -3.03884 5.32681 2.47573
C 7.76993 1.71906 -4.84281
C 2.87813 -7.05424 -3.55864
C -5.36557 -0.30756 3.17615
C -4.92107 -3.29535 -0.49999
C -8.58619 2.63443 -2.34075
C 1.64074 -2.66084 5.38319
C -3.74013 8.40248 -3.15740
C -1.72663 -8.76014 5.13309
C 1.55217 8.16154 -4.81843
C 2.74289 1.34047 -9.25960
C 8.20069 -3.43046 -2.45531
C -2.87415 -6.22781 -5.59553
C -1.61881 6.21767 7.69055
C 2.08685 -0.54665 0.15983
C 4.66647 3.66380 -7.31332
C 3.92668 -9.09701 -2.84033
C 5.60108 -5.28923 -5.41351
C -0.67534 2.59915 -9.36977
C -6.82985 -5.04532 -9.66914
C 1.49313 -9.80573 2.62087
C 8.81409 3.00119 -0.36215
C -3.76309 -1.49692 5.96187
C 4.61083 5.00578 5.52120
C 3.09394 6.31855 4.04752
C -5.09083 2.43984 -1.90881
C 1.20441 -6.83663 0.13526
C -3.40195 3.14237 -9.46589
C 9.28112 -3.51723 3.82223
C -0.14166 -7.26912 6.54785
C -1.46588 -5.93989 0.58329
C 2.65779 8.87904 -1.38243
C 4.47139 -2.99277 -2.32131
C -1.65093 -1.28006 10.03362
C 8.23776 -1.39957 -3.91408
C 0.39995 6.99632 6.33693
C -4.30129 1.92528 -4.64099
C -0.85817 -9.23862 4.04968
C -7.83688 3.10833 -3.80119
C 6.74737 -2.12592 -5.43802
C 4.99826 7.22043 1.00768
C 0.99460 -5.65117 7.94083
C 2.55530 3.65420 -8.39307
C 7.71410 4.12012 -3.01090
C 3.79418 -5.13500 -1.81888
C 5.67764 -3.35743 -8.90905
C -5.46558 6.56772 -4.21902
C 6.76036 -7.57189 1.89538
