686
C686 3000 K last frame of liquid_carbon.lammpstrj
C 6.15813 -6.42049 4.63710
C -1.82271 -0.55174 0.37572
C 5.12789 -1.95939 5.27953
C 3.23366 0.57103 7.03550
C 5.77719 0.63533 4.07346
C -6.89369 5.57423 -3.88956
C -2.96516 0.97183 1.91161
C 6.44258 2.20656 -1.69627
C -1.79932 -2.31718 2.76998
C 5.92022 3.51147 -1.79449
C 5.19442 2.82367 2.79380
C 5.86922 -6.75538 -2.18749
C -9.51861 -4.54080 -2.83172
C -6.27596 -0.01236 9.44306
C -2.64686 7.16186 5.00845
C 1.98129 -7.38413 6.67697
C 2.07908 3.65586 -7.06580
C 1.94645 0.87083 -7.13853
C 1.95431 9.09862 0.58089
C 5.07770 -3.88655 -6.00314
C 3.20333 -1.17387 -9.28416
C 7.70615 -2.27949 -4.11540
C -6.87964 -4.76744 1.55023
C 8.76857 -4.92378 1.03926
C 6.42222 -1.49830 2.90323
C 3.32253 -6.92243 7.01675
C -5.35304 -0.37535 -9.25990
C -6.31668 0.72891 -4.56337
C -4.77597 5.69319 4.36262
C -5.72921 1.25214 9.01094
C -0.23645 -1.68354 -1.98610
C -5.15177 -0.07592 -6.42802
C 5.16187 -3.60705 1.99529
C 8.34926 -10.09756 -12.46183
C -5.48078 2.40393 -3.06214
C -3.34870 -1.93519 10.80107
C 1.54347 4.09745 9.28171
C 6.31954 -0.26463 -2.42602
C -5.52089 3.65809 -8.02023
C -4.09028 -4.03453 -5.34028
C -8.69070 1.22899 -0.16496
C 2.61493 2.59579 5.74891
C 3.40169 -3.79545 5.57729
C -2.07684 7.19262 -5.90690
C 4.30474 -7.09869 5.92481
C -4.47629 2.17920 9.32646
C -5.55041 6.98386 -0.88413
C 1.45237 -8.64194 -0.36988
C -11.92407 -0.40920 3.29815
C -0.94869 3.62052 3.87795
C -11.53843 -2.33185 -0.18495
C -2.02039 1.58493 -2.66554
C -8.10911 1.79164 -7.41524
C 8.42037 3.13901 3.84725
C -1.69274 1.10985 -4.19567
C -2.37676 -0.70492 -10.78471
C 5.88197 -3.35150 0.88725
C -8.42246 -2.93250 -6.55941
C -4.12017 2.23763 -3.71973
C 6.78614 -2.06373 -0.90815
C 0.43804 -2.46652 10.76382
C -3.17776 -7.89436 3.07572
C -6.65888 -5.68046 4.06387
C 0.95644 -2.55645 -2.52177
C 5.27723 4.27248 -0.67686
C -2.25775 0.88228 4.47099
C 0.33375 4.76266 2.01033
C 5.99938 -4.75315 -10.79969
C -10.32221 2.24066 -5.01251
C -2.41557 -0.17340 1.74197
C -7.23137 3.95238 -6.07734
C 7.27928 0.04922 1.26318
C 9.86039 -0.01100 2.10483
C 2.69428 4.60019 -6.55409
C 3.78152 -8.19633 -0.56026
C -1.05279 -1.84743 0.46899
C 7.53143 -5.62302 3.13142
C -7.77917 4.71735 -4.86781
C 0.16374 -1.35415 7.67162
C 9.02517 -0.30838 4.76299
C 0.95997 2.14646 -10.90843
C 3.02824 -1.55493 6.70284
C 3.99201 8.39108 -0.40949
C -3.05664 6.34799 -8.17384
C 5.61894 1.45724 -3.96098
C -2.44744 4.63782 -9.87188
C 1.03405 1.38254 7.68882
C -0.70007 -0.60763 6.73069
C 9.79689 3.22454 -3.05781
C 3.81754 4.63875 0.92389
C -6.71241 6.65380 -0.24059
C -8.12786 -3.97264 3.25173
C 1.62548 8.26674 -5.62740
C 1.66515 3.93839 3.97889
C 3.38176 4.79478 7.56486
C 1.89632 6.40314 6.48269
C 3.66528 -7.48570 -1.72548
C -8.19186 2.88327 -6.62458
C -1.99205 3.04271 3.01952
C -11.85964 -2.03576 -1.48967
C -3.49495 4.99945 1.03560
C -10.19681 -1.19014 -6.52890
C -0.60637 8.15113 4.00458
C 4.27033 -1.24219 5.99827
C 3.45752 4.39639 -5.19620
C 4.77338 7.42360 2.03669
C -1.56382 -9.07871 4.69819
C 4.59631 1.06287 -10.07507
C 8.65079 -4.43843 2.29657
C 6.50775 6.91999 0.32219
C -7.74203 5.90974 0.39181
C -2.96256 -4.51771 10.58551
C 2.08391 4.77671 8.32754
C 2.29304 2.77255 9.77424
C 8.78045 -4.73724 -1.45111
C 8.00935 6.20917 -1.30270
C -0.62834 0.04050 -3.92917
C -3.97863 -7.12171 2.33210
C -0.96497 -2.71043 5.09411
C -8.10997 -0.27539 -2.93272
C -11.64779 -0.22539 -3.19632
C -1.08528 -5.68912 8.82502
C -3.47830 2.76395 -1.18381
C -7.23917 4.81062 2.72281
C -13.36198 5.76170 5.38790
C 7.00573 3.12725 -6.70133
C 2.86751 -3.81513 -1.49889
C -11.13050 -2.59470 -2.62977
C -1.39486 -1.45312 5.42256
C -10.21538 1.09506 -5.86153
C -2.66555 2.23367 1.02279
C -1.40124 1.58400 5.36030
C 0.28436 7.46494 -7.79674
C -2.95687 0.25483 10.43548
C 1.67431 8.71260 -1.69162
C -0.03623 4.49473 -10.34850
C -3.78429 2.56676 -10.09506
C -3.25741 -4.82129 -4.56330
C 1.80397 8.09165 3.14968
C -1.63946 -0.44795 10.78808
C -9.49293 2.35924 5.96510
C 5.18786 -2.94141 -8.86609
C 9.42641 2.08203 -3.71874
C 5.45294 0.46167 9.04894
C -1.17564 -2.80915 1.44068
C -7.77533 1.74312 -1.31898
C -8.97484 -3.69190 4.32282
C 1.10201 -7.68690 -1.42456
C 3.56428 2.20619 -6.21592
C 10.44210 2.24543 -0.76202
C 2.80611 4.69495 2.11634
C 7.77324 2.08562 6.27344
C -2.81260 -6.41164 -1.43539
C -0.45548 0.50474 -7.87973
C 3.15283 -5.31103 9.01385
C -6.31148 3.50342 7.59846
C 0.62278 -5.03562 -4.75857
C 9.49492 -3.48438 2.68153
C -8.48776 -2.02654 7.01124
C 2.88998 -2.85340 6.44042
C 9.07134 1.04295 4.24898
C 10.55375 -0.19964 7.53007
C 5.49453 -6.45441 5.95148
C 9.90606 0.64369 0.65931
C -2.64481 2.04663 -0.40089
C 6.83491 -4.58864 6.44277
C 3.06296 -2.80135 -7.42694
C -6.65306 1.69942 -3.27139
C -8.53040 -4.46647 -0.31702
C -8.81095 5.01065 -0.67308
C 19.45937 -9.41162 -12.28470
C -2.57927 -7.20143 6.48362
C 3.91743 -3.13507 -2.60600
C -5.79896 -5.28287 -1.42883
C -6.71835 3.24292 0.25256
C -8.05607 -0.99896 -4.19592
C 7.58175 3.67604 6.59985
C 4.30264 4.93218 -2.76716
C 9.01384 -2.73835 3.97326
C -3.53122 6.93441 -3.78502
C 12.19102 -10.96781 -12.08287
C 5.81470 6.96585 -5.12589
C -2.76309 1.92953 -10.86350
C 6.99112 -0.59184 -1.17075
C 2.17377 -4.79536 5.12771
C 0.09962 0.29939 -11.28826
C 0.74347 -3.18142 -0.16496
C 7.19864 1.19829 7.07579
C -10.46078 4.16027 4.28482
C 3.16502 -2.66562 -3.77642
C 1.72135 -4.94557 -5.72995
C 0.52506 -9.09610 5.25818
C -0.84143 -0.62613 -11.15810
C 4.12439 0.81810 -5.86042
C 4.29304 7.31931 -7.34190
C -11.22823 -1.36041 2.10966
C 5.92096 -7.30912 2.36323
C 4.20794 2.47164 5.14671
C -6.14091 -5.04311 -4.05976
C -11.33623 1.99180 4.72288
C 0.65831 6.12748 -0.55264
C 8.89928 3.65592 -5.37767
C 1.55944 -3.38888 -1.47408
C -5.15301 -5.30181 -2.80900
C -2.67576 -6.02575 -2.67730
C 0.65082 -2.69131 7.87957
C -1.74603 -0.05401 -7.71826
C -3.25778 8.01169 -1.67250
C 0.66308 8.89159 0.49988
C 7.84949 -0.24532 -5.41554
C 2.47357 7.34048 -6.05302
C -0.60210 -3.43920 -8.73346
C -11.76959 2.34507 0.67620
C -0.26257 -3.99758 3.22828
C 2.48075 -5.10066 3.71926
C 8.25890 -4.21773 -2.72718
C 8.17639 -3.16069 5.00393
C 3.07831 -8.87577 1.64071
C 4.58536 6.73376 3.37118
C -0.94411 8.67237 -1.45959
C 4.24910 1.09537 9.58349
C 8.69015 4.30070 0.69644
C -5.68044 -2.36873 9.87110
C 0.17766 1.53077 10.31913
C 7.19672 0.37626 -7.53457
C 0.12920 1.99167 6.68941
C 4.87234 -10.06760 2.81596
C 6.08268 -7.31964 -0.94460
C -8.15156 5.00050 -1.99340
C -0.38468 -2.42939 -0.62741
C 4.73433 3.37314 8.92547
C -9.18966 4.53836 3.92071
C -11.90909 1.36843 -1.54946
C -2.61925 1.73223 3.36376
C 3.41252 7.86525 -3.56339
C 7.16293 4.56578 5.40288
C 13.18189 -9.87252 -12.12069
C -10.87427 -0.24222 -5.66682
C 1.69975 6.82474 -8.14314
C -0.10060 -3.71913 1.92318
C 0.45011 2.99493 5.71209
C 9.41551 -2.77152 0.17284
C 5.36964 -3.71548 -9.89577
C 9.70492 -0.72757 6.75687
C 7.04682 -7.56349 -12.72289
C -10.13827 -2.91764 -4.78469
C 6.71608 -6.25933 -12.92181
C 7.42306 0.42713 -0.32699
C 8.83263 5.12280 -1.82729
C 3.42880 1.90342 -10.36354
C -10.13604 4.49040 -0.18786
C 3.99355 -7.66481 4.56030
C -11.96814 4.40709 3.83332
C -6.57842 2.26622 8.50139
C -0.38821 1.65938 -11.26517
C -9.58205 -3.62605 -0.74302
C -15.47550 7.27611 5.00703
C -6.97700 4.39601 5.42095
C -6.91665 -1.29808 -8.03681
C -1.88015 -5.12350 -4.59778
C -4.54740 4.80474 0.02610
C -3.75322 -3.69716 -6.57061
C -9.15637 -1.00688 -2.32105
C -5.08109 3.87316 7.61431
C 0.79020 -4.16698 0.97353
C -6.79417 -2.80581 8.84291
C -7.99950 -3.31010 6.70451
C -7.11452 2.43110 1.44990
C -1.20560 6.03613 6.88690
C -2.51255 5.74784 7.38339
C 0.17977 -5.21838 3.76778
C 9.46614 -10.79482 -12.35971
C -0.59993 4.64593 8.58389
C 2.71668 5.51389 -9.74377
C -1.37487 -8.14607 0.00499
C 1.29585 -3.51656 10.24802
C 9.72862 -1.57938 -0.87089
C -5.21682 -6.82018 6.45911
C -4.84888 -6.02321 10.06692
C 6.97132 -5.88006 -2.41228
C 0.79305 -5.78425 -3.54260
C -1.58747 8.53733 1.42440
C -6.82394 -3.80337 7.85191
C -1.99694 7.67512 3.82856
C 6.32517 5.44222 6.08257
C 2.60193 8.60534 1.73584
C -0.31041 -2.00098 -10.37790
C 2.34614 0.45746 10.86408
C 5.08042 -5.42528 7.82647
C 4.65418 7.84891 -2.98589
C 7.29569 5.41047 -6.40419
C -12.55084 0.24424 -0.99071
C -8.74337 -3.69642 1.92077
C 9.31519 -1.49700 4.09519
C -1.16983 8.17372 -2.93860
C 6.37345 -4.36410 -4.37095
C -3.15449 1.70914 10.05925
C 1.58036 1.53461 10.36846
C 3.16632 5.52311 6.24683
C 3.66881 0.22957 10.44235
C 0.69544 -2.99668 -8.76874
C -5.02260 0.87076 -5.34090
C -5.65655 -2.46398 -8.24879
C -4.65021 -6.79685 7.69854
C 6.58177 2.12294 0.85674
C -3.10002 2.28436 -2.54157
C 5.48643 -7.24742 3.72799
C -10.34263 -3.15735 0.31693
C -3.79134 -2.44597 -9.66417
C -1.30308 -4.20838 10.62456
C 2.97334 -1.77774 11.05415
C -5.06413 -6.45583 2.42035
C 16.98002 -8.80602 -12.24819
C 7.70782 -4.41825 5.27167
C 1.68335 3.27158 5.19536
C -5.39785 -5.95402 8.63817
C 6.80186 5.80373 2.08930
C 3.66850 -1.60506 -4.50327
C -2.05505 6.85965 -7.20066
C 9.68641 3.46889 -1.60318
C 5.94720 -2.95905 -6.05104
C 5.01438 -1.89706 9.40370
C 6.98431 1.77840 -0.48815
C -5.35038 -0.95032 10.09787
C 1.58179 5.10269 1.36672
C 6.94588 6.27168 -5.28310
C -11.33208 3.39388 1.63347
C 1.24844 -3.17975 6.76745
C 9.32583 1.10372 2.94073
C 6.99904 -6.39747 -0.19603
C -1.46245 3.77432 -10.28222
C -1.16147 -9.25974 2.34348
C -10.11555 1.08769 6.35613
C -8.34603 -4.51449 -4.97265
C 3.69734 3.20839 -10.21216
C 5.46538 5.94781 5.19189
C 4.81726 5.81604 -7.83919
C 9.07784 -1.61806 -2.29785
C 5.50623 -1.15598 -3.04258
C 1.14601 7.21360 5.48978
C -2.35492 -7.98528 0.84863
C -5.05083 5.31541 -6.67515
C -1.26477 -7.82894 6.90881
C 4.13095 3.12100 -5.24967
C 1.80193 -4.84177 1.32730
C -2.30998 2.62451 9.83638
C -12.33403 1.11059 1.17467
C 0.84027 -4.22912 -6.79707
C -0.80473 7.66522 -5.30674
C 8.58896 -2.87878 -3.02339
C -12.05608 2.07034 3.30057
C -4.71340 4.66833 6.49402
C -1.53665 -5.57989 -3.30178
C 5.23150 -8.03034 1.28181
C 0.10630 -0.72070 -4.72304
C 5.79972 4.96424 7.36452
C 4.08169 4.99085 -8.74175
C -11.23856 -0.91281 -4.36500
C 0.21715 -3.69134 5.88266
C -3.89272 -6.26861 -0.21255
C -5.33317 -5.87746 -0.11631
C -4.48861 -5.86038 -10.84741
C -1.24657 -3.06464 3.72502
C 7.38017 -2.42295 7.29377
C 7.24407 -0.83210 -6.78500
C 6.51803 5.37946 3.29896
C -6.07766 -5.43073 10.57480
C 6.96321 6.82468 -3.35897
C 1.03133 -0.23164 7.90377
C 1.35570 -5.75597 2.89110
C -10.15448 3.63649 -2.52554
C -6.52854 -5.80894 6.60326
C 7.81842 5.13549 1.00658
C 7.15105 7.11260 -1.93182
C -1.41485 7.18761 6.13041
C 9.25398 -4.08615 -0.02279
C -3.68359 5.77946 2.01076
C 14.35107 -9.32590 -12.08838
C 3.70242 -3.91923 9.86132
C 3.20531 -4.93548 1.01376
C -5.60815 -6.68130 3.79130
C -0.63391 5.94372 -0.09026
C -9.38419 -1.24572 6.38918
C -2.12431 -0.48490 4.63382
C -0.27674 8.71830 1.64393
C -10.92923 0.83846 5.32972
C 7.60737 1.67714 -6.79534
C 6.12050 3.71948 -7.72593
C 0.25837 4.17847 3.38814
C 7.70918 -6.07353 0.91263
C -2.11930 -8.39562 2.16443
C 5.03178 2.96794 -4.19425
C -12.36807 -0.88118 -1.82586
C 0.83092 -1.89892 -9.75305
C -12.99237 4.68771 4.71973
C -11.81694 -1.28397 0.86856
C -12.05843 3.37085 2.70790
C -8.33105 1.52941 1.20048
C 2.46862 -0.65565 7.75158
C -11.39769 -0.43322 4.68123
C -3.51587 7.69951 0.54258
C -5.44947 -4.34621 -5.18525
C -2.81780 -8.47954 4.35878
C 4.37988 -0.39113 -9.73591
C -4.27929 7.50907 -0.78504
C -12.43300 0.78641 2.57694
C 6.00842 7.35880 -1.05656
C 9.04318 4.26660 -0.70390
C 5.78468 -0.92432 8.88295
C -2.70683 3.63178 9.01075
C 6.02927 0.54132 -8.34763
C 5.17165 -4.75067 -4.93972
C 6.10509 2.90927 8.71857
C 5.51638 2.96318 1.37792
C 1.52528 0.05467 -10.75903
C -3.98655 -0.18361 -7.05021
C 1.13716 -9.42474 2.89871
C -7.48865 -4.89488 -1.25183
C 5.82336 -2.98678 -1.28215
C -0.22475 7.56706 5.30478
C 1.36919 8.58535 -4.18626
C -6.95862 1.31161 -8.34255
C 6.95832 1.35822 1.92745
C -2.77751 0.09292 -7.01530
C 20.66953 -9.12649 -12.72147
C -6.54060 -5.21721 7.76681
C 5.03654 -3.78944 -0.29889
C 0.83259 -4.67690 9.76681
C -3.71392 -3.23149 10.77322
C 5.18743 -2.60281 -2.42757
C 6.97460 -1.16291 1.57647
C 4.60374 4.55018 8.07849
C 9.83359 -2.47556 1.64715
C -3.56266 -5.63157 9.92563
C 2.22013 8.48633 -3.05477
C -9.34810 -0.47041 -7.46420
C -7.81017 4.47684 4.00328
C 7.35696 -4.98821 -3.43101
C 3.42100 5.24039 -4.03302
C -3.63204 3.95659 -9.67364
C -1.09147 5.36436 1.17084
C -8.04524 1.88256 8.02006
C -3.69269 -4.06708 -9.25990
C -2.21733 8.69224 -0.87324
C 4.31700 -3.83184 4.54854
C 10.98408 -11.19272 -12.29386
C -7.31245 -0.29365 8.67320
C -6.81788 -0.09393 -8.69496
C -6.18745 -4.11425 -6.28195
C -10.22275 -3.53915 -2.15141
C -5.17331 -3.13723 10.85938
C 8.36677 4.90655 -3.46938
C 4.90731 -3.26102 9.12600
C -9.10035 4.27508 -2.95668
C 6.51716 -2.15855 0.62440
C 1.10423 -6.80886 7.52692
C 0.68560 -1.14218 11.12266
C -3.16575 -6.60065 7.56189
C -8.04975 -4.20126 0.96412
C -9.39625 0.10814 6.98797
C 0.24642 7.71009 -6.23603
C 4.14444 5.23241 -1.52266
C 6.93511 -1.29505 7.82040
C -10.36590 4.44639 1.11421
C -11.09287 -2.20633 -3.94365
C 9.37553 3.10410 1.27339
C 3.98730 6.30288 5.49262
C -7.03641 -0.40883 -4.97476
C -5.85844 -4.28754 10.98118
C -0.80164 -4.52929 -5.25190
C 3.44501 7.12268 4.26452
C -9.36345 3.05081 -5.42402
C -0.31202 -0.40345 -2.29364
C 8.97931 -0.49604 -3.05193
C -5.13178 -1.89595 -9.29976
C 4.58591 3.80211 -9.23069
C -4.93676 1.92929 -9.70465
C -10.48814 2.28188 -3.45360
C 1.31943 5.76350 7.69959
C -0.38313 -6.25085 -2.84403
C 2.60336 8.71365 -0.64164
C -7.54850 -5.00640 -3.88145
C -1.46994 2.56317 -11.08043
C -0.22933 -6.99168 -1.79696
C 8.87799 2.63367 2.45439
C 4.20114 0.05158 6.09061
C 5.08921 0.42843 -4.80245
C 2.87104 0.10493 -6.15075
C -3.31732 -7.53020 5.27080
C -5.72538 4.53248 2.18436
C -1.00384 6.14450 -9.14646
C -10.07916 -2.54345 4.01801
C 2.70863 4.20514 -10.20931
C 0.19097 3.95127 9.45996
C 1.48771 6.12927 -9.20767
C -12.11562 0.07899 0.36260
C -3.52769 5.30092 6.36857
C -2.33548 -1.08196 3.12084
C 1.70099 5.74586 -0.02236
C 9.69229 -1.32698 2.53077
C -5.41283 5.67128 -4.14251
C 2.60614 2.20631 -7.07119
C 8.20784 1.32443 -5.69869
C 3.83536 -4.68253 3.42967
C 5.15828 -10.62821 3.97134
C 5.48079 -0.55786 -8.81837
C 3.33466 -6.19601 -3.75835
C -5.49236 4.91138 5.37429
C 6.34108 -5.47480 -11.90655
C 8.49538 -0.66574 6.19081
C -9.60186 -0.74731 -1.14284
C 3.63700 -2.15471 -8.37697
C 8.62888 2.18273 4.93703
C 8.22374 -0.86911 -4.22321
C -3.32271 -7.01229 1.06178
C -0.52313 -3.84261 -6.29811
C -5.58185 4.04435 0.86435
C 5.84614 -1.69443 -8.12241
C -0.35738 -6.88195 7.84101
C -6.40581 -0.69823 -6.42226
C -9.44911 5.16916 2.13126
C -8.02723 1.80693 2.47302
C 5.46384 -4.17620 8.12039
C -7.65105 -1.97306 8.25333
C 4.86739 1.02890 5.09720
C 6.76157 -3.06563 -4.85790
C 5.65019 1.74863 -9.09304
C 0.01291 5.54384 7.41539
C 5.70546 -2.81404 3.01952
C -7.30211 3.69157 6.40650
C -5.82230 2.29259 -8.78675
C -6.17322 4.30708 -6.82901
C 5.20464 -2.89883 4.22150
C 2.58095 -3.40733 10.50418
C -4.49028 3.78397 -1.01045
C -7.98873 5.52794 1.76716
C -3.46963 6.84974 -5.23476
C 3.91897 -1.26794 10.14212
C -7.53377 -3.74457 -5.88431
C -3.91915 -5.50914 -3.40180
C -2.04329 -1.75892 10.81048
C -2.55940 -2.08144 -10.25282
C -9.69092 -0.00772 -0.23025
C -0.85561 -8.59064 5.87647
C -4.16529 3.40075 8.72723
C -5.51878 3.29244 -1.82457
C 1.42570 -3.37063 -7.69697
C -1.01194 -9.58535 3.73028
C -2.58193 -5.76742 8.55270
C 5.58657 5.98643 3.81315
C 18.08032 -9.32027 -12.27455
C 9.50705 0.85102 -2.80789
C 5.52424 3.13393 -8.67367
C -10.52997 3.03986 5.02107
C -0.06872 8.25560 -3.76602
C 3.72662 -5.98874 7.94153
C -8.12588 -5.05462 -2.60031
C -8.31719 2.63788 6.85559
C -4.72150 6.38067 -3.11920
C 0.47765 -9.56536 3.99158
C 4.82667 8.10075 -1.51208
C -0.81637 3.03732 5.20446
C -9.27767 0.99257 -6.94431
C -14.46352 7.94398 5.19765
C -0.71462 0.88748 6.30723
C -8.16500 0.41203 7.79379
C 4.90954 3.83807 0.58275
C -0.45220 -5.02466 9.86194
C -1.66607 0.65761 -0.50975
C -4.84015 -7.01211 5.10939
C 3.20092 5.61638 -0.13828
C -5.33472 -3.41129 -7.41048
C 6.58406 -3.60395 7.31073
C 0.37943 8.72981 -1.00414
C 2.36112 1.68209 6.87180
C -1.31211 0.59640 -1.94210
C 4.76212 7.25272 -6.09114
C 1.83473 -8.20295 5.33895
C 3.70842 2.42590 9.38470
C 7.87635 -6.00075 -1.39900
C -3.93988 1.57997 -4.92957
C -2.49615 8.61692 0.37937
C -2.71382 7.50468 -2.75893
C 2.83136 7.18389 -7.30278
C 5.92598 6.87970 1.52009
C -5.74469 -5.88043 1.20320
C 3.62004 7.48376 -4.91565
C 0.40090 8.52773 3.15648
C -4.62712 6.08223 -5.22127
C 3.01555 -4.71589 -5.56526
C -3.64949 6.38197 5.15074
C -0.74259 2.55760 9.95038
C 3.83530 -5.52833 -4.66623
C -4.22316 -4.88850 -10.08615
C -1.42835 -3.82491 -7.65284
C 6.20461 1.79542 3.30075
C -2.60310 1.27436 -5.29919
C 7.79799 -8.58779 -12.44364
C 7.03723 -6.42488 2.12581
C -5.86463 6.11343 -1.93615
C -0.18737 0.19974 10.90004
C 5.09546 -7.83507 0.03650
C -11.34557 1.09023 -2.85864
C -9.97159 -3.13247 1.61478
C 1.87546 -5.78555 9.05470
C 0.80412 -4.74925 5.16392
C 2.20961 -7.03148 -1.87463
C 5.78214 7.26955 -3.69918
C -1.37747 -7.36748 -1.14296
C -14.11749 6.80803 5.38976
C 2.60323 -8.33348 0.25980
C -9.64530 -2.38625 -5.99905
C 3.89038 -4.24292 -0.41506
C 4.10558 3.18939 3.63478
C 2.87054 3.98469 3.39736
C 3.95283 8.13336 1.17473
C 2.05767 -0.89666 11.31570
C 8.19589 -2.19086 6.22943
C -11.69352 2.67445 -0.89744
C 7.54802 5.84402 -4.04342
C 7.82232 4.12976 -6.36291
C -4.66958 0.60779 -10.01466
C -10.60981 -2.38167 2.65659
C 0.76643 0.63614 -7.97022
C -8.10564 -3.97672 5.47758
C 10.12769 0.90926 -1.46578
C 4.47841 -6.66044 -2.57307
C 9.04473 2.28058 -5.12144
C 7.43488 -0.11695 7.00846
C 9.27317 4.47474 -4.31735
C 7.28622 -5.56967 4.42376
C -0.77601 6.68908 -7.80893
C -8.34064 -1.86649 -7.46995
C 1.22325 -1.61292 -4.73053
C -0.97821 -2.88948 10.70490
C -6.70016 2.92171 -1.08998
C -3.53326 7.21961 1.90096
C 1.92107 -1.01233 -9.84855
C -2.19691 4.84757 8.42675
C 0.32249 5.80849 -9.86179
C 1.62325 -2.66538 -3.89785
C -7.14132 -5.18267 5.33127
C -7.21887 -5.03685 2.87135
C -10.44778 -1.41332 5.09002
C 10.11371 -0.17959 -0.50183
C -2.29575 7.65557 2.51102
C 0.16504 -9.39194 1.77693
C -2.54925 3.43912 1.75979
C -4.52246 4.35350 -8.56171
C 2.18343 1.34145 -10.86214
C -9.51013 -4.19885 -4.37336
C 6.32233 1.42457 8.41604
C 6.19613 1.25548 -2.77818
C -2.35034 6.04677 -9.42311
C -2.91026 -3.93835 -7.65334
C -1.31898 -2.82345 -10.04976
C -8.94043 4.24135 -4.57729
C -10.62133 3.73564 -1.20937
C 4.52464 -9.04721 1.82806
C 6.12737 5.20722 -7.68199
C 6.02574 -0.68443 3.73684
C 9.92141 1.95497 0.53435
C 7.51255 4.55891 4.18542
C -4.08279 -0.70207 10.74290
C 2.12055 -6.21662 -3.17076
C -7.02713 5.79166 -2.45189
C 6.38713 -1.87775 -6.99735
C 2.15112 -8.78634 2.94042
C 4.23369 -4.76794 2.05099
C 2.09270 7.46537 4.28395
C 3.77836 -3.73194 -6.54202
C 5.96039 -5.75361 6.76690
C 1.12398 3.71707 -10.52434
C 6.58140 3.61606 7.63448
C -7.49385 0.96249 -2.43159
C 0.29229 -8.79760 0.49554
C -4.84807 5.41480 3.01141
C -3.14842 0.53761 -10.84493
C 7.63206 6.15681 0.09257
C 2.63925 -8.30099 4.35655
C -4.22737 5.67338 -7.96972
C 5.09676 3.65555 -2.89318
C 4.76540 -0.77882 -4.31964
C 2.59946 -0.98182 -5.41053
C -2.28145 4.55396 1.19083
C 15.61712 -8.85442 -12.34096
