686
C686 500 K last frame of liquid_carbon.lammpstrj
C 0.98420 -2.74595 11.23442
C -1.51582 1.06320 -2.85921
C 0.02699 -3.39908 5.83134
C -3.22476 2.02752 5.92746
C -0.13535 -1.00873 6.86740
C 1.27954 2.74874 -7.97871
C -1.89039 1.28316 -4.14066
C 2.88927 0.35306 0.00932
C 1.94537 0.82325 2.68629
C 3.17941 2.41001 -2.31562
C 0.98754 -0.86273 5.87937
C 4.85678 -4.52185 2.57971
C -3.27241 -4.73153 -5.55128
C 0.32135 -0.89082 3.35731
C -3.49182 11.46881 -1.65896
C -5.17074 -4.59760 7.97085
C 4.35608 -0.88742 -2.79577
C 1.57111 -6.21555 -3.16235
C -0.41181 2.70566 0.36271
C 6.02169 -3.00644 0.45883
C 8.10495 -5.23044 -2.19512
C 7.65698 -0.59331 2.90346
C -3.26691 -5.56254 -0.29760
C 2.81265 -2.70609 9.46162
C 2.86259 -0.12901 6.46232
C -2.32449 -3.65364 9.59246
C 3.54760 -3.67518 -8.81566
C -4.45305 -0.10846 -6.27454
C -4.85800 6.84697 -1.94359
C -3.09992 -0.67953 0.37583
C -2.13164 0.00808 -4.71117
C -3.78431 -3.45002 -5.08518
C 1.27719 -10.19323 -2.00691
C 4.37750 3.05138 9.43358
C -4.78317 2.50055 -5.31381
C -7.61419 -0.11892 -3.33175
C -1.41148 7.45072 2.52562
C 2.27172 -2.98992 -2.00344
C 3.46479 -0.92134 -10.30253
C 1.87413 -9.26653 -4.25912
C -4.94718 0.99400 -1.02346
C -2.32115 1.85181 6.87680
C -0.65529 -5.15350 4.26135
C 3.19507 5.50741 -6.37369
C -2.77122 -1.78670 8.13542
C -6.38256 2.26716 -2.47227
C -2.41207 3.41673 -5.01920
C 0.86327 -7.87244 4.59284
C -8.53426 4.39448 -3.69536
C -0.80587 5.21231 -0.12901
C -6.01134 -8.01095 -4.75951
C 2.57777 1.03015 -6.59328
C 0.52862 -1.81139 -9.69241
C 2.01747 3.67710 4.89753
C 1.39584 -3.60437 -5.90486
C 5.87935 -1.73607 -7.49008
C 3.52192 -4.48162 4.58263
C -1.13532 -5.37545 -7.52647
C -1.83673 0.79038 -8.74746
C 4.89577 -2.48470 3.79643
C -6.48456 2.99401 7.24462
C -4.60938 -8.44617 3.17956
C -4.42414 -3.64176 1.28811
C -0.21060 -2.78556 -1.71800
C 1.71798 2.48483 -1.99434
C 0.97275 4.19321 -3.63173
C -1.64839 7.36376 -0.09571
C 7.05633 2.16381 4.89939
C -1.17728 -0.32403 -9.34594
C -2.56203 -1.05360 -3.53054
C 0.86271 0.80152 -9.25651
C 3.47767 -0.75411 4.00327
C 3.85316 0.68665 6.94785
C 3.94104 0.14467 -4.91145
C 2.81976 -7.54584 2.75183
C -1.32371 -1.81907 1.56532
C 2.34927 -0.87659 10.98841
C 3.42172 3.30136 -10.13202
C -4.16655 -1.54377 5.88661
C 1.08688 1.50219 10.77105
C 6.27501 -1.71874 -4.98882
C -2.52644 -4.72571 8.66954
C 3.11678 5.84434 -2.21926
C 5.43738 5.19213 -7.78499
C -1.39607 -0.70342 -1.19688
C 5.50596 3.11544 -6.21067
C -1.66548 2.00592 3.81332
C -3.77565 0.05332 3.49372
C 6.27774 1.29504 1.37259
C 4.33306 4.68277 1.02860
C -6.36443 8.01288 -8.26960
C -2.65487 0.02696 2.68913
C 4.69710 5.73325 -4.24185
C -0.67367 2.82647 4.06924
C -0.04752 3.27989 2.94450
C -1.66684 12.85411 -2.69916
C -1.39823 -6.30932 1.76324
C 0.21162 -0.37416 -9.37868
C 0.68694 3.29016 -2.57123
C -5.12574 -4.14648 -1.86227
C -1.50258 4.47680 -2.72546
C -2.27702 -3.62634 -8.61569
C -0.51406 13.17496 -2.33901
C -3.89213 -0.56224 10.60444
C 3.50855 -0.45208 -0.72607
C 2.80268 6.53876 -0.09417
C -4.82167 -7.60996 5.49738
C 8.85952 -0.89621 -1.55052
C 3.82320 -1.80601 8.85051
C 2.75794 8.48758 0.88668
C -2.49407 7.87313 -10.52200
C -8.72086 0.60607 1.16024
C 1.03755 6.93238 6.36020
C -1.72433 5.98230 4.74986
C 6.48643 -1.37982 6.28556
C 5.14668 8.00873 1.29207
C -0.19866 -3.67586 -4.05401
C -4.07526 -8.60548 1.81220
C -4.35130 -1.21043 3.76882
C -4.02185 -0.93415 -3.00292
C -4.14533 -0.02138 -8.57490
C -9.26600 0.90166 8.75934
C 2.11569 2.38940 -6.87383
C -7.22626 3.44470 -5.43666
C -8.59603 1.44828 4.59785
C 5.87514 -0.68894 -0.55792
C 2.45529 -6.20522 0.32756
C -3.82349 -7.15636 -3.40088
C 3.04307 0.42634 3.41505
C -1.80789 -1.61841 -9.52561
C -1.43797 -0.03357 -5.96725
C -0.20274 1.72085 -0.63652
C 5.55467 6.62188 -3.37928
C -8.48630 4.55837 2.73469
C 4.52622 9.48539 -4.97458
C 5.19539 0.38036 -8.78583
C 5.30215 2.67942 -8.48659
C -0.82989 -10.81009 -0.99536
C 2.26720 11.71841 -0.90085
C -7.62453 3.45770 4.77913
C -1.17740 7.72335 -9.94932
C 7.11290 4.49153 4.03929
C 5.99415 0.72435 0.06013
C -2.12328 3.04965 9.47325
C -0.14358 -3.13629 3.29127
C -5.42721 3.27450 -2.29749
C -6.04538 -2.80722 -0.30243
C 0.29993 -7.31263 0.13044
C 1.57105 -2.30992 -6.33315
C 5.49810 5.53458 5.31956
C 0.18977 2.33500 1.79382
C 0.72104 4.93850 8.19267
C -0.65337 -10.42959 1.53443
C -3.85988 -1.40916 -6.63505
C -5.99599 -2.25218 8.79759
C -7.00407 1.28662 -6.47482
C 6.11274 -7.92597 3.53426
C 3.92111 -0.39805 9.12877
C -7.66228 -0.64722 -4.70758
C -5.17018 0.54827 6.59885
C 1.65176 3.05776 6.10762
C -6.22431 1.53301 9.11218
C -1.36388 -3.31361 10.68514
C 3.98146 1.89953 6.21878
C -1.50066 1.32252 -6.42066
C -5.88589 2.70702 8.42816
C 5.03429 -5.00911 -1.06456
C -4.48016 1.10262 -5.39377
C -1.65910 -4.75827 -2.16671
C -0.00377 4.17570 -10.99001
C 8.19425 -4.99562 3.29622
C -3.92784 -4.82177 3.31510
C 3.96784 -8.64311 -3.50083
C -1.97085 -8.79195 -2.51157
C -4.93741 4.43100 -4.41366
C -9.86758 -1.33786 -1.89160
C 2.05714 4.94605 7.56726
C 5.46579 1.58791 -0.92511
C 2.94181 0.09114 10.15306
C 0.87274 5.49466 -6.11511
C 9.08258 -2.94022 3.51618
C 7.52552 4.59408 -0.85772
C 4.75454 -1.62535 -9.68139
C 4.84447 -0.97951 3.82155
C -2.31385 -6.32634 2.95985
C 6.69717 -3.15077 -5.00664
C -2.19830 -2.49034 6.94179
C 0.04760 3.90263 8.65697
C -7.74559 2.27676 -2.90649
C 2.52646 -5.98823 -1.11419
C 5.62739 -6.51715 -0.79731
C -3.69123 -6.29533 7.27334
C 5.09494 1.67313 -6.45241
C 4.63924 -0.87083 -1.35062
C 6.33319 5.86390 -2.48910
C -9.85168 0.70955 -3.47069
C 2.00856 -3.85856 8.90887
C 0.09316 2.01267 9.92035
C -0.46343 -8.49908 -4.17204
C -7.95620 -3.28675 -4.11423
C 3.48305 4.74509 -1.38806
C 4.93724 3.38492 0.63912
C -0.67008 -3.78349 -2.62798
C -0.79851 -9.36284 -3.04104
C 0.36040 -10.88653 0.63287
C -3.07034 -4.64810 4.51554
C -1.46340 -2.31518 -5.96558
C -4.64553 8.88659 -9.88334
C -1.48110 10.77396 -6.05415
C 9.22691 -0.05728 2.71222
C 6.71339 1.40787 -3.12590
C 4.73331 -6.09784 -5.09131
C -7.03105 -7.94039 -5.55419
C -0.87414 -4.98324 1.71862
C -3.40641 -6.97762 -0.26659
C 6.46422 -2.84045 6.20689
C -0.88565 -1.23104 11.88892
C 0.94372 -6.96221 5.72124
C 0.63377 5.58539 2.06032
C -1.74507 6.76509 -3.64095
C -4.64856 4.36917 7.31877
C 4.13711 4.75722 2.39088
C -8.38517 -2.00901 -0.65824
C -5.30027 3.67153 3.96749
C 8.93125 -0.66888 -0.14931
C -2.95714 2.40889 4.54512
C 5.59180 -7.83462 1.15504
C 5.12749 -5.62908 6.53393
C -0.40550 6.50651 -9.72385
C 0.03733 1.66020 7.25805
C -2.45329 5.76673 7.06149
C -0.99860 8.61396 -8.85620
C -6.04594 -6.18028 -3.23718
C 2.18575 4.82326 -4.17390
C 2.49205 9.54462 -3.58451
C 2.88834 6.20634 5.37254
C 8.10451 -2.47870 4.43941
C -2.84295 -2.23367 -8.84896
C 6.45109 8.16624 -5.73535
C -1.14900 -2.71853 0.45648
C -0.42444 1.02588 2.23423
C 7.80768 2.01087 8.19001
C 6.74291 3.56824 5.08691
C -7.98591 2.29260 5.51031
C 5.07953 3.78882 7.27247
C -3.46465 -5.05757 -6.91715
C 7.51902 1.49365 7.14386
C 3.00500 -1.89191 4.91665
C 6.01173 7.19938 2.05518
C 8.56938 -2.22649 -1.99397
C -3.63992 5.68757 -11.01960
C -0.10582 -5.06500 8.85620
C -6.13927 9.20904 -0.71475
C -6.03944 1.37408 -7.41829
C 8.25497 0.62043 -7.02150
C -5.27861 -7.26207 -3.88734
C -8.42255 0.06075 4.81193
C -1.00807 8.13771 -5.43264
C 1.25720 -4.75084 -8.15132
C 2.14305 -10.12156 -0.81421
C -1.53612 4.11455 -4.13565
C 3.07426 -8.61204 -4.59476
C -4.13326 -1.82959 -1.89612
C -3.86972 5.41816 1.45311
C -1.22475 -4.23071 0.47771
C -9.58622 -2.07647 3.94552
C -6.24133 -0.19795 -2.84918
C -4.39450 3.19887 -1.42476
C -3.47820 6.82308 3.58903
C -4.36900 7.61820 4.20911
C -3.65249 -5.99788 2.65714
C 7.75012 3.03047 9.14950
C -0.43645 5.74556 1.15374
C 7.24200 3.77291 -2.05685
C -0.97793 -9.33950 3.60277
C -6.67945 0.56163 6.84004
C 4.88117 -2.20588 7.78035
C -7.40246 -5.71003 1.47520
C -6.55078 -0.58490 0.23540
C 8.82975 -3.98148 2.58293
C 5.96717 -8.29441 2.36365
C -2.34052 8.01319 -3.55765
C -7.02196 -1.82600 -0.19474
C -3.71252 9.93125 -3.33057
C 1.38724 4.80420 4.27534
C 2.33757 8.36726 -1.46270
C 5.99613 -3.83962 -6.04226
C -1.83506 4.50669 4.86541
C -3.10376 -1.68148 10.63445
C 5.42383 8.87749 -2.37138
C 8.98250 2.22062 1.73477
C -6.32482 -4.33524 -5.52987
C -4.26453 -3.13901 -2.35678
C 2.47738 1.37519 10.38559
C -0.12637 5.70360 -5.20494
C 6.84305 -5.92262 4.88416
C -8.29091 5.55877 2.09900
C -4.08554 4.46751 3.65637
C -2.91648 11.05272 -0.37676
C -4.58945 3.41196 8.51735
C 5.26013 -6.43929 -3.82799
C -1.04910 1.47341 -7.88897
C 1.69502 -5.68496 -7.17549
C -7.18782 -6.29713 2.68480
C 1.20441 1.77383 -0.88191
C 0.71238 -1.17057 -6.57941
C 0.67165 -4.21802 9.51608
C -7.51455 -4.76056 -0.97252
C 4.28293 -5.02719 -7.01878
C -6.11123 1.97751 2.54524
C -3.12598 -0.38821 7.76438
C -4.17472 -7.43994 0.85796
C 6.84546 -6.67652 3.60258
C 0.43585 -1.65703 12.01710
C -0.85990 3.44650 5.48091
C -7.30505 0.28981 1.00031
C 2.35793 6.90391 3.21917
C 4.46916 -2.12970 -3.46271
C 4.35608 5.75936 -5.74085
C 6.41018 5.75584 4.09975
C 8.28369 -5.07076 0.42702
C -6.03795 -0.91150 9.14709
C 4.41055 1.31658 3.64034
C -4.23538 1.43263 4.18176
C 3.93411 2.18083 4.85068
C 7.04432 6.82073 1.15083
C -5.91819 -2.12400 -4.54017
C -3.13223 -3.18500 4.67076
C 1.12432 1.77173 6.30400
C 4.58304 -4.53998 7.13334
C 5.40712 1.38905 -7.85239
C -3.66821 -8.37159 5.34488
C -0.35995 7.91416 -7.84750
C -1.51589 -6.40110 -5.21224
C 8.51943 0.19047 -2.34886
C 2.11730 6.10366 6.64793
C 6.86428 5.86903 -1.12874
C 7.22343 -0.43859 5.52659
C 3.38483 -3.82563 -2.05116
C -2.47062 9.84169 -0.06737
C -2.40322 -9.41037 3.24603
C 3.33841 5.65619 -8.88844
C -5.83006 -5.53253 6.93257
C 3.89159 1.09711 -5.94002
C -2.09531 -7.63985 -0.33956
C -7.86281 6.46040 1.27734
C -4.55721 10.54539 -2.20521
C 4.99381 -7.57728 -1.54180
C 2.64344 5.86730 -7.62537
C 5.39350 -3.24126 7.01748
C -8.96106 -2.50581 -1.89024
C -4.14551 4.53801 -0.98459
C 1.66116 -10.29417 0.51695
C 1.35648 -5.49496 5.64022
C 0.96730 -4.27286 -4.75481
C -0.30641 6.75859 6.75667
C 7.64250 2.40134 -2.44541
C -5.98770 -5.05733 -6.65449
C -2.00340 -5.81085 4.27094
C -1.94033 -10.21786 1.03225
C -1.83933 -10.08591 -0.40591
C 0.23408 -14.35701 -0.39087
C -3.77862 -2.49560 3.53141
C -1.86563 0.96603 10.91779
C 10.18826 -0.96509 3.09173
C 2.12584 6.05167 4.25126
C -9.92477 -3.37544 3.90709
C 6.63602 6.91338 -0.23980
C -3.07771 -2.49968 5.86680
C 2.37130 -4.56647 7.95476
C -3.95693 3.28824 -10.15845
C -10.17437 0.89913 -1.04710
C 3.60863 7.51793 3.01060
C 5.62572 7.97259 -0.09714
C -5.24049 9.46335 -1.65865
C 5.55615 -1.02172 7.40368
C -4.58351 8.10837 -2.27211
C 7.36225 -3.45125 5.19411
C -5.22829 1.12670 9.91695
C 2.12993 -9.95105 -3.11822
C -4.47601 -6.21568 1.45639
C -0.69942 3.40243 -1.89105
C -2.45261 -0.90735 1.62015
C -1.33343 1.95010 -1.68569
C -1.88927 10.34703 -4.77603
C -9.21513 2.26221 -6.26563
C 9.38850 0.54047 0.26988
C 8.79472 2.83254 0.46161
C -2.22398 8.61780 -0.33078
C 2.22190 -2.27749 10.65469
C -3.49510 -8.88108 3.99058
C -1.58180 -0.29209 -2.56622
C -3.66369 -1.36132 -8.04444
C 6.11032 -5.33868 -3.32023
C -8.76171 3.48017 -2.69148
C -8.07305 -4.81991 -2.37528
C -8.53860 -3.49501 -2.79534
C -5.18014 2.33165 3.49217
C -4.48727 1.41561 5.68565
C -8.12603 5.82565 -5.72359
C -0.56227 8.65085 -6.63543
C 0.71931 -8.64372 -4.89647
C -7.16177 -5.63155 6.48998
C 8.74168 -3.23433 -1.00607
C -3.22519 9.07350 -10.12577
C -8.08370 4.65424 -4.91739
C 2.57028 9.22130 -0.27161
C 5.81424 6.75098 3.34704
C -1.31493 2.07388 10.24373
C -6.68614 8.28421 -0.09454
C 7.84593 4.02908 2.85958
C 5.15565 -4.05185 0.22414
C -1.58923 5.34005 8.19632
C 4.58818 2.49319 2.72150
C 7.45689 -3.57293 -3.86803
C -2.20956 -2.39663 -3.66918
C -1.14559 -8.19025 5.84656
C -2.63834 -4.99172 -3.29610
C 3.78570 -3.01201 4.48731
C -2.72437 10.85931 -3.73311
C 3.23109 5.55772 -3.60518
C 1.68734 -2.59047 -9.64865
C -0.71867 0.18880 7.33733
C -3.05759 -2.34532 -5.90127
C 6.03389 -6.20051 5.92603
C -9.39288 0.22773 -0.06155
C 6.62816 -1.85533 -0.21881
C -7.35518 -0.38604 5.71276
C -10.10753 2.26537 -1.24262
C 5.55980 -3.26373 2.87419
C 6.67223 3.63842 9.11076
C -1.56416 6.52341 6.02667
C 4.75243 0.08755 7.95928
C -9.12470 1.48090 2.15279
C 3.36558 9.82616 -4.60484
C -0.93652 -3.73750 -9.07548
C 0.25977 6.71199 -8.38088
C 6.28999 -2.71122 1.81523
C 3.90626 0.25806 -3.56328
C 4.45418 2.45841 -9.62142
C -4.71949 5.47039 -2.00177
C -10.26863 -0.03004 -2.27391
C -0.13361 -11.80635 -0.26430
C -1.51075 5.87875 -2.46385
C -1.21126 -6.54314 7.45041
C 10.28685 -2.17023 3.42137
C -9.82741 3.38591 -1.81833
C 2.03647 -3.83838 -8.87910
C 1.33184 -7.58341 -5.66009
C -3.73920 -5.87652 -3.00075
C -7.48682 -5.30384 0.29550
C 8.09962 4.75710 1.67146
C -5.14709 -0.26034 9.98862
C 0.95090 3.46005 -10.32592
C 3.93758 -5.19930 3.52256
C -8.23663 0.19542 8.75321
C -5.79076 3.93370 6.46696
C -8.32928 -5.81283 6.05693
C -2.04295 -4.93076 -0.78345
C -10.35565 1.13289 -4.56734
C 6.42553 7.03488 -6.30350
C 1.92587 1.30296 0.28844
C -3.63899 2.92742 9.40493
C -3.85660 4.48478 -10.63891
C -4.81789 -5.33126 -7.01649
C 4.58050 7.07566 3.92547
C 1.63102 12.71325 -1.46889
C -5.38581 -3.23847 -5.10084
C -9.88887 -4.47666 4.58882
C 3.41683 -9.59654 -1.21124
C 0.56241 4.59266 3.09947
C 1.96635 1.18259 -10.27907
C -1.01222 -2.06613 -0.76129
C 7.65395 -1.04258 4.32108
C 3.06510 -5.65680 -6.75667
C 8.61072 1.57040 -1.75588
C 4.03041 -2.81025 -9.79459
C -3.90878 2.12389 -9.69872
C -2.06969 6.76441 3.55165
C 2.15722 -9.48420 1.65747
C 2.02038 8.88690 -2.61004
C -1.59275 -7.57301 -4.36997
C 7.58265 -0.30131 -6.61308
C 1.24990 -9.28430 2.69328
C 3.92019 3.59435 3.09217
C 0.59076 -1.39870 4.57229
C 4.56076 -3.35817 -2.61220
C 1.60559 -5.22493 -3.99429
C -9.26953 -5.25142 5.38894
C -5.86243 3.45733 -5.15976
C 5.42110 3.43121 -4.96276
C -5.19729 -0.19932 -0.22333
C 7.43101 0.17339 -3.37563
C -1.19925 7.00900 1.24967
C 6.35974 4.53008 -2.90612
C -7.30368 -5.50765 -3.47323
C -1.35639 6.17020 -1.05948
C 0.59769 0.40041 2.94672
C 3.61271 5.29568 -0.01018
C 3.38409 2.46918 9.97253
C 1.55874 3.73943 -8.92298
C 2.75212 -1.44141 -6.47711
C 8.06707 -1.63494 0.58181
C -0.47804 -4.43860 2.97414
C 4.34074 -8.37091 0.75820
C 8.88224 -2.79317 0.35448
C 3.38421 -5.70656 1.27653
C -7.64080 6.67195 -6.53417
C 7.22114 1.06140 5.86204
C 0.48220 0.61009 11.66884
C -4.26830 -1.41814 -0.21287
C 8.39905 -4.60868 -0.98082
C 2.54633 3.66627 7.02051
C 6.69173 0.71061 2.74508
C -2.85094 -9.42169 1.81418
C 4.38183 -8.56710 -0.65935
C -7.78687 2.40976 -6.15354
C 8.79057 -3.95400 1.20548
C -5.48508 -3.38008 8.50497
C -5.32769 -0.82602 -3.87428
C -3.15866 6.81312 -11.08291
C -3.77070 1.92676 -1.11091
C -4.06641 1.77532 10.20208
C -9.38087 -1.05026 -0.47913
C 5.33155 0.23250 3.33794
C 7.36980 -6.01589 1.15987
C 8.20063 2.66463 2.87419
C -2.60269 11.87073 -2.78506
C 0.04829 -4.76471 5.44471
C -6.83325 0.20236 -5.52027
C 2.81500 -2.18880 -10.33385
C 3.15732 0.37540 -10.37531
C 0.30996 -2.78382 4.62428
C -4.24794 -0.54702 6.83391
C -0.23072 4.45254 -4.42548
C -2.49284 10.01103 -9.44082
C 2.24368 3.31585 -5.93234
C -3.28857 0.73951 10.81895
C -0.66266 -6.10879 -6.44239
C -0.12204 -10.28198 -2.08891
C -8.44830 3.49186 3.62759
C 5.26619 -5.08716 -6.02079
C -0.47216 -1.84128 2.61412
C -4.87836 -6.49066 6.45662
C -3.88668 5.03536 0.24840
C -1.70373 2.18615 -5.26621
C 4.77391 -7.54262 -2.98404
C -5.46274 -7.61243 4.10724
C -6.53933 -1.25047 5.12015
C 1.64018 6.51505 2.08953
C 7.57219 -4.73277 4.59086
C 7.34963 1.82149 3.61651
C 9.12274 1.75266 -0.50302
C -7.36335 -2.06867 -4.56833
C 1.18330 5.87733 -7.47987
C -2.95857 -2.44410 9.31803
C -2.64075 -7.92802 -3.51272
C -2.32468 0.11416 -0.52060
C 2.07843 4.70870 -5.60624
C -2.55046 -6.98337 7.12987
C 5.38409 8.80638 -1.10998
C -2.42779 1.46592 -0.88699
C -0.68970 -2.45172 -9.59765
C -8.97016 -0.97240 3.99547
C -1.71709 1.01629 2.78011
C -10.21337 1.87929 -5.58897
C 1.65293 1.79395 1.58593
C -5.24290 -1.49321 4.84894
C 1.88899 -0.27773 -6.82234
C -6.45070 -6.79430 3.56638
C 3.97286 3.38201 -1.60282
C 0.74648 -6.53287 -6.55447
C -7.28660 1.97188 6.66811
C -0.70895 3.88976 -0.43401
C -2.13622 0.56931 7.58607
C -1.19746 -2.79174 -4.65844
C 5.67560 8.83479 -4.77195
C -3.78815 -5.15728 8.11029
C -3.78122 5.43456 6.96555
C 3.24217 -4.70139 6.89989
C 0.29832 1.67010 -8.29336
C -1.59350 9.78772 -8.49476
C -0.98820 6.80037 -4.89084
C 4.78784 -1.92855 -4.75970
C 2.14063 7.17128 0.94028
C -2.17335 -8.90274 -1.10113
C 4.05839 1.48263 -2.92890
C 0.80626 13.27064 -2.29730
C 2.83146 4.39529 -9.31822
C 6.33493 -6.84208 0.45097
C -5.10395 8.44098 4.74002
C -7.35357 7.42219 0.70652
C 4.36283 -4.67119 1.25147
C 0.04352 -13.12550 -0.36259
C 3.53739 -6.55843 -5.73411
C 1.67076 0.51812 5.97988
C -0.73402 -1.16772 -6.45520
C 5.35587 3.69604 8.61216
C 1.28035 -0.53656 11.92538
C -3.82937 3.47466 -4.79176
C -6.21799 3.87856 5.04582
C 2.64449 -4.93268 5.60977
C -3.34192 0.91379 -9.22563
C -4.98735 -5.41778 -2.58546
C -6.84086 0.20669 8.41875
C -4.27511 -3.56557 2.63523
C 1.49406 -7.02954 0.76346
C 5.58957 8.04395 -3.49248
C -0.10434 -9.76438 2.58590
C -8.85603 2.04151 3.34840
C 1.66964 -8.16289 3.49823
C -2.32121 -4.76440 -7.74544
C 3.36824 -9.52134 -2.62173
C -1.10586 2.52810 6.54179
C 3.22565 3.28936 4.36421
C 2.73405 6.98870 -1.36918
C -2.96005 3.90690 4.36112
C -0.91759 0.22117 11.66494
C -5.05791 0.39286 -7.59127
C 8.10464 6.10502 1.62764
C 4.79223 2.82833 -0.61844
C 5.37425 -0.97425 -8.59898
C -6.21279 -3.88041 -1.12001
C -3.28919 -3.46345 -3.49774
C -7.39330 -4.51114 -4.61407
C 5.87198 4.28029 6.05928
C 0.53896 -7.42750 -1.27926
C 9.41437 0.88619 1.63334
C 0.32704 2.40370 8.49098
C 5.43973 2.48224 1.63210
C 0.08028 -3.60611 10.60604
C 5.46591 6.03732 -6.59755
C -0.18517 -4.70145 -8.29151
C 3.80649 -1.15887 -5.48685
C -6.57807 1.19756 1.76547
C -5.19741 4.54871 -3.00651
C -1.11737 9.98262 -7.00071
C 7.42934 -4.86045 -3.28514
C -3.77447 5.58427 2.88490
C 5.54866 4.38309 -4.05822
C 1.52191 -6.66148 -1.87582
C -4.78014 -2.64259 0.38679
C -4.20053 -5.01041 0.64630
C -8.35558 1.02613 -3.15177
C 2.35936 -1.46523 6.14073
C -3.51818 8.59583 -3.13202
C -2.54674 -8.11870 6.25003
C -1.83277 8.92397 -4.57489
C 4.34934 1.01845 -9.76067
C 7.82446 -2.35906 -3.24553
C -2.35011 -5.41079 -4.75840
C -1.33182 4.12686 8.95170
C 1.11516 -2.75139 -1.73025
C 5.48293 3.75261 -7.50184
C 2.72977 -7.64678 -5.43567
C 5.55398 -3.08870 -7.23694
C 2.11155 2.54035 -10.47675
C -7.69013 -8.36187 -6.62918
C 3.26204 -8.54606 1.70890
C 8.15235 4.01001 0.29383
C -0.81683 -2.37206 6.75896
C 3.86269 3.23446 6.90670
C 4.34030 6.32740 5.18080
C -5.86924 0.99258 -2.08526
C 3.32021 -6.23387 2.62186
C -0.30548 5.35583 -10.48467
C 7.31491 -1.64280 1.85125
C -0.29806 -7.18873 6.51066
C -1.04972 -7.30923 0.72620
C 2.60785 10.56941 -0.46885
C 5.45756 -4.47233 -2.40109
C -1.91564 -2.06502 11.30065
C 7.21570 -1.17441 -3.86828
C -0.27398 5.92523 7.92035
C -5.45624 0.08662 -5.07509
C -0.49178 -8.56698 4.67243
C -7.05804 7.44100 -7.36190
C 6.55000 -1.12508 -6.31285
C 3.86288 8.28241 1.85224
C -1.26752 -5.47899 8.32400
C 4.73492 5.69766 -8.84512
C 5.45552 1.54273 -2.43748
C 3.59656 -5.10944 -1.52892
C 4.43394 -3.83764 -7.76036
C -5.54084 8.42427 -9.17568
C 7.36640 -5.87361 2.60905
