686
C686 4000 K last frame of liquid_carbon.lammpstrj
C 0.19606 -2.43911 7.44616
C 25.10344 18.92114 -7.63891
C 0.83731 -4.34857 5.78080
C 26.19416 13.15674 -5.15126
C -0.53964 -4.61328 6.16718
C 13.35860 -20.47867 -6.71797
C 2.20764 7.79809 -12.21513
C 2.18703 5.34579 -11.59882
C -6.55124 -2.25004 5.66456
C -6.85351 0.42966 -12.30029
C -3.31607 -3.77949 6.46630
C -2.73232 -3.40170 0.30053
C 10.06749 -8.39464 5.89276
C -11.26851 -1.75707 -13.80684
C 5.70640 8.26351 -0.83473
C 27.14871 -22.28960 -9.89947
C -0.83987 7.79952 -10.14258
C -9.12739 21.66496 -5.51512
C -11.78165 -30.95999 -4.99467
C -0.58012 -5.56894 -1.62762
C -2.42979 -3.91688 -6.14399
C 0.35920 -5.82839 -2.72600
C -11.40820 -4.28489 -12.49555
C 2.50379 -3.37237 3.94208
C 3.01377 11.32631 -6.88402
C -1.94828 -1.46940 11.70135
C -6.13335 -1.69679 -10.70356
C -23.49600 16.79290 -7.74418
C 4.24057 -11.71205 -19.67572
C 7.84170 13.80647 20.18271
C -9.86142 9.34945 -15.18051
C -5.79326 6.17952 -12.67789
C -10.55317 -4.11698 -11.35862
C 7.18039 0.05485 2.41900
C -10.87086 -29.28891 1.64604
C -10.01825 -30.87993 -1.97811
C 5.17612 7.34158 0.30326
C -16.30941 6.27991 -7.84643
C -13.46774 -27.64812 5.24284
C -13.46743 -6.25618 4.91896
C 25.99289 14.86580 9.57663
C 16.87129 4.60408 -7.85825
C -5.20040 8.47363 -11.68837
C 1.74593 9.05553 -12.20987
C 0.26271 3.48584 9.73229
C -13.47505 -25.69379 7.31433
C -0.69270 -30.18909 -7.53753
C -5.12013 -2.86554 3.57283
C 29.48600 -22.63266 -9.29629
C -3.90187 4.99697 7.18851
C -11.20253 -26.71722 -15.98293
C 29.38509 18.86668 32.99414
C 1.27141 14.93487 18.75668
C -2.41890 2.46655 -12.28333
C 6.10980 15.39076 20.23872
C 5.27335 -14.13342 22.66553
C -12.79393 -2.39635 -6.67204
C -6.07684 2.84539 -12.26253
C -13.89931 -30.03853 -4.04242
C 0.13169 -5.16040 -0.58742
C 20.34059 19.64985 -9.59633
C 10.04168 -19.42250 -9.02953
C -5.64874 12.90540 -0.96180
C -11.01729 0.12856 -6.07894
C -10.72510 -0.73600 3.23256
C -3.47420 10.44697 2.05118
C -3.55330 5.85998 6.25166
C -0.01332 3.17186 -12.37573
C -21.25580 12.79740 -8.89102
C 9.51096 -10.58638 6.85145
C -5.82433 11.90957 10.52233
C -9.33961 -2.95027 4.93617
C 6.01084 -1.79990 2.52780
C -1.14524 0.68149 -11.46315
C -9.82403 -2.73248 1.00399
C 13.36566 2.13897 -3.65492
C -10.25387 -3.42553 -1.35678
C -6.73778 -2.78644 -11.59485
C -6.06261 7.97287 15.75472
C 4.45094 1.63839 5.41793
C 5.25955 -11.00823 22.41435
C 19.08748 13.64104 -1.16771
C -24.72206 22.22018 22.04569
C 29.60782 17.77152 26.14111
C -8.18788 -4.60913 -5.04196
C -2.79025 17.91015 33.44273
C 4.93604 -11.82575 21.59326
C 13.30395 -17.69995 -5.31781
C -1.20509 1.86386 -12.13430
C 6.52751 -3.42015 -1.62044
C 25.29864 16.23049 9.49518
C -6.47059 11.48680 11.42804
C 2.27547 3.93176 -11.26795
C -20.45938 21.58264 -8.25187
C 4.12217 7.60394 1.15023
C 8.17975 6.98546 -3.90973
C -3.26841 -3.52660 2.69045
C -10.07067 -30.11864 -0.91129
C -11.15382 -29.14570 2.75253
C -10.19971 -29.41827 0.18474
C 30.22743 20.06538 36.30333
C -10.03725 22.78141 -5.42884
C 7.54413 8.46243 -4.15351
C 2.15181 3.49562 7.94135
C -3.75358 0.91761 -11.12943
C 8.20611 6.56219 -5.27832
C -6.73344 -5.68381 9.69949
C -0.04284 -3.87932 -6.49275
C 3.07715 -2.68476 4.96749
C 8.13451 4.16224 -5.73081
C -1.51993 6.72794 5.06076
C -8.72633 -28.35968 -15.05524
C 7.77207 4.73913 0.15986
C 3.06353 8.71006 0.67974
C -13.85475 -22.51005 11.95442
C 7.91479 1.54456 -5.97305
C -8.85891 18.37700 -9.64108
C 21.44732 13.83222 -1.07023
C -6.87239 12.22070 1.31821
C -25.54695 -32.50879 15.60017
C 11.31100 -25.12136 -9.41289
C -23.78751 20.55247 -8.37262
C 11.17725 2.36369 -2.09861
C 30.24030 16.89217 29.86908
C 1.54373 6.14344 7.84356
C -2.55425 3.89320 -12.85916
C -3.84276 -3.11769 1.39897
C -10.04616 -28.80579 -15.26697
C -6.29996 12.23079 -0.04469
C -10.26395 2.18910 -12.88287
C 1.80046 23.87867 -2.36462
C 6.41258 -14.88471 24.78127
C -0.21843 4.55927 -12.48695
C 9.10192 13.54152 20.17120
C 3.94269 7.34214 -9.14694
C -5.14681 8.22007 7.57662
C -5.75359 15.63770 34.32579
C -10.90484 -3.69172 -10.12067
C 24.88027 10.90403 6.27103
C 1.94275 5.64391 4.70055
C 10.98706 -24.45058 -8.19914
C 7.83390 -1.08518 -1.82443
C 5.93775 -3.16008 -5.74170
C 4.71726 4.05629 4.09061
C -1.88744 -3.88458 2.45533
C 9.62497 -26.07881 -10.89858
C -3.69323 11.83716 0.40197
C -20.86316 -0.23734 5.09362
C 4.81504 15.84726 19.85883
C 6.66806 -1.79675 1.33708
C 24.31817 9.11668 4.54718
C 6.87725 1.55187 2.57360
C -17.17675 27.67715 -8.69681
C -25.66646 22.03290 21.28882
C 1.31864 3.38489 8.93916
C -14.33583 -25.30858 8.11718
C -3.76738 -3.45369 4.05608
C 4.18852 -1.74612 4.35736
C -10.55862 -31.28586 -4.48469
C 9.27559 -17.85127 26.24214
C -0.51971 5.97497 6.07441
C 2.26365 4.95346 7.27466
C 0.97551 -1.01457 7.95292
C 6.46314 -2.65505 0.25820
C 30.09498 17.32120 31.12163
C -12.30630 -23.11324 13.81524
C -2.23929 -5.18881 -3.29471
C 5.25849 -12.47071 -22.05895
C -14.59298 -22.82947 11.16352
C 0.77177 25.16044 -4.62389
C -9.06915 -3.48068 -11.65316
C 21.49789 19.76985 -8.91764
C -13.54597 -4.79103 -1.94512
C -4.66158 7.55641 13.18902
C -11.08067 10.03780 -15.65806
C 11.17496 -18.75401 -4.86743
C 7.13181 3.78242 0.96332
C 7.21493 -2.19124 -3.92254
C 4.60078 -0.53856 4.88734
C -3.48324 9.32773 2.65363
C -9.06612 -2.04926 1.89435
C 5.58299 -3.76197 -4.18211
C -7.79871 -3.52437 -10.74057
C -0.38021 -4.51258 0.56320
C 12.13155 11.25229 20.42761
C -4.19003 -2.48114 -7.54774
C -5.48968 -6.39506 9.98728
C 5.98051 2.08432 3.28405
C -12.21278 -6.91365 5.63294
C -4.61157 -4.05707 -3.11925
C -6.57203 13.38920 32.49233
C -2.85647 0.61632 10.78023
C 1.18130 2.78894 -11.81593
C 23.72330 19.07760 -7.82891
C 1.45616 1.34843 -10.88620
C -3.02258 12.51530 -0.51463
C 1.17783 -4.04320 4.29139
C 2.49964 6.42015 2.68915
C 10.20451 -9.78613 6.14255
C 24.11669 7.86859 4.11939
C 1.78709 10.29409 -12.68178
C 7.00475 -2.15423 -1.18522
C -13.05159 24.25701 -10.79974
C -15.06224 -23.56109 10.12889
C -3.80779 3.64960 9.30555
C -6.80796 -8.40912 2.03224
C 7.08193 -15.26355 -19.40667
C -5.52422 10.48156 6.71077
C 5.15792 8.06144 -6.93818
C 15.91588 10.41206 20.25939
C 2.52749 1.14438 -10.00642
C -4.81569 -2.21104 -0.53394
C -15.05388 5.87372 -8.67267
C 24.45474 18.14540 -6.76185
C -11.33195 -4.49631 -4.34018
C -24.00902 0.74066 4.11785
C 4.03701 0.43597 5.75499
C -12.04388 3.00117 -11.28651
C 9.63518 5.66972 -2.85987
C -11.73975 -28.94802 3.96528
C 4.53022 5.40656 2.29138
C 9.32486 0.36040 -1.94753
C -7.74493 -1.83394 -12.28104
C 3.74210 6.55483 1.95606
C 0.28246 -5.65385 -4.14244
C 23.67286 14.18933 -2.31888
C -6.17277 -2.03874 3.20013
C -9.71882 -4.01102 -2.49316
C 11.76212 -23.48174 -7.62059
C -1.37665 0.90207 9.36521
C 5.68814 5.48801 1.67204
C -0.65340 -32.35643 -6.35603
C 9.98480 -19.37948 -4.90141
C -14.33613 -30.28858 -5.28884
C 4.01931 4.92895 -9.92782
C 8.34555 1.62447 0.53207
C -23.99187 0.52466 5.35845
C 14.38327 1.72300 -4.46903
C 5.13094 0.93277 -8.61852
C -9.38356 20.53941 -6.15767
C -5.62176 -2.51060 6.80794
C 4.26923 -3.38741 2.12087
C -4.87071 8.17383 10.85679
C -18.33207 0.90764 1.44824
C -10.10607 6.43296 -12.79405
C -7.71881 -3.76853 -9.53413
C 5.77683 -3.67885 0.14723
C 1.44205 -5.36061 -0.73441
C 6.44043 -3.23614 -3.37957
C -0.31163 -2.67374 -7.26050
C 3.01074 -29.12144 -7.95634
C -4.22104 -3.10574 10.07708
C -14.58091 -3.66944 -4.10487
C 9.23969 -20.32883 -4.36803
C -2.60086 -0.42970 -9.47218
C 25.43121 12.51926 8.26250
C -5.43336 7.10207 7.10118
C 0.56740 27.55963 -5.56847
C 22.56761 19.60949 -8.37411
C -12.14142 -3.67749 0.19266
C 2.35494 23.89935 -1.12878
C -10.70400 -4.31509 -5.78849
C -17.19364 26.35652 -8.63653
C 5.84429 9.89112 -3.39993
C -7.87868 -0.41280 -12.63945
C -6.35319 -26.56441 -10.73853
C -23.48913 15.49579 -8.17086
C 25.32330 11.79384 7.01051
C 6.55981 7.87279 -1.79955
C 7.46998 -24.80200 -7.72147
C -10.43354 -27.70611 -15.82189
C 4.70804 -4.18085 0.93176
C 0.62106 5.78546 4.76436
C 0.73519 -0.54686 -10.15886
C -7.06165 -1.96639 4.37661
C -12.09723 -1.70366 1.10208
C 0.37146 -4.50980 1.67649
C -0.64523 9.35366 0.56914
C -12.51598 -26.21250 -16.15034
C -7.48573 -2.20096 0.95553
C -8.50056 -2.09537 4.11518
C 2.55943 10.47624 -1.01570
C -24.76446 22.93731 17.93087
C -2.96713 10.63010 0.73043
C 9.76849 4.57048 -1.71427
C 5.11720 7.13258 -8.10420
C -5.18097 -3.27210 -7.07805
C -6.59202 8.37083 -12.19749
C -0.32989 0.58216 8.67544
C 6.55480 3.06071 -7.82105
C 3.97846 -6.10145 -2.21342
C 16.12996 3.42735 -5.56469
C 10.22339 13.11837 20.54737
C 5.75152 -0.08626 4.36906
C 12.35052 -21.10983 -7.35613
C -13.27409 -1.29097 0.09883
C 29.62317 -23.03706 -10.41812
C 2.46839 5.40953 3.41724
C 8.34444 6.40833 -2.64851
C -21.55584 21.98809 -8.78333
C -5.95609 -4.63259 -4.85239
C 2.66730 14.77655 18.77760
C -11.89138 23.97318 -10.97588
C 16.63975 3.91548 -6.74669
C -4.49559 7.53363 -11.75410
C 29.46720 19.42964 35.48872
C 1.33819 -3.13099 6.51946
C 8.07181 -25.55379 -6.44676
C -10.26352 -4.22553 -9.12714
C -0.83053 5.24862 14.05872
C -5.46920 3.39461 15.80670
C -5.04233 7.75780 11.99255
C -6.18119 11.46730 5.96566
C 2.83757 0.10133 6.76957
C -0.02638 4.37137 10.70720
C -25.31981 21.90348 18.70995
C 10.14621 3.62231 -3.89877
C -0.57616 -3.55990 9.72932
C 3.45208 2.49651 -9.82199
C 8.17375 -0.05340 -3.85440
C 6.78312 -6.57250 -2.52423
C -4.02002 4.33090 8.14714
C -0.22016 7.97095 -8.85872
C -1.55676 7.99212 2.77178
C -4.44762 -2.94959 6.63805
C 6.26026 0.73187 -7.68532
C 8.84990 -23.78711 -3.79820
C 9.18022 -25.04214 -4.24728
C 0.37418 5.02333 11.88572
C -1.17223 -4.43627 7.39541
C 0.60250 0.27598 -11.09032
C -15.57940 -0.51269 -0.56229
C -1.07791 -31.16650 -6.83896
C 8.11408 -22.62152 -8.29730
C 0.47748 -1.70657 -7.75836
C 9.11585 2.43313 -0.63551
C 4.06455 -2.10484 -7.11556
C -10.87742 -4.37085 -3.22527
C 3.84348 10.27707 -7.44506
C 25.71297 13.73969 8.72452
C -11.98131 -1.73962 -15.00548
C 28.23985 17.86596 22.57570
C -6.40029 6.60124 15.29499
C -9.67351 -6.95183 6.18915
C -4.65001 10.77375 8.73888
C 28.38782 -22.94391 -10.11077
C 0.64662 7.93976 1.77960
C 14.60490 10.20677 20.65822
C -25.58581 21.30357 19.81248
C -22.94350 0.41598 4.78905
C 15.35595 -20.28006 -2.89787
C 3.65434 9.85721 -0.20703
C 3.09800 6.86063 -11.50641
C -3.34813 -3.85988 8.66981
C -18.33590 27.36251 -8.77646
C 8.89335 3.94860 -0.76028
C 1.90901 -0.84690 -9.16607
C -3.42469 6.44794 -11.96144
C -11.23329 2.57288 -12.03892
C -5.49971 -5.19772 9.45805
C 2.72319 9.59367 -8.20867
C 4.67870 -6.29746 -3.51208
C -27.04019 -32.69328 17.35206
C 2.80940 2.51693 7.13807
C -6.53347 12.18115 32.01552
C 10.66647 3.74894 -2.51056
C -16.67518 25.10362 -8.38581
C 3.62525 -4.09315 -6.15334
C -1.97149 5.24230 14.72906
C 0.36094 -4.22114 3.24097
C 7.50916 -28.88025 -10.91944
C -15.99611 24.35660 -9.23514
C 9.74794 2.48135 -4.56398
C 4.81647 -0.92099 -7.47112
C 4.77970 9.40862 -1.04560
C 2.86226 -3.36636 2.62906
C 2.91276 -11.38700 -19.11158
C -18.66089 0.71857 2.89216
C 5.11454 -29.10213 -9.68044
C -13.67124 -3.30224 -6.41681
C -10.11455 -5.55638 6.28286
C -2.77564 8.29545 2.90441
C -12.09723 4.25638 -10.28376
C -8.35765 13.96429 11.92960
C 6.67549 8.60521 -5.17756
C -4.93867 9.64950 7.51999
C 1.36790 -5.22489 -5.05799
C -4.80282 2.71851 -12.78322
C 1.67606 8.62985 1.00095
C -19.14686 1.16462 3.90599
C -6.88693 -7.52711 3.10735
C -6.54486 7.26045 -12.99805
C 29.68872 17.80531 27.32204
C -4.85016 -4.21891 -6.01266
C -4.59895 13.06743 -0.04822
C -12.96389 -30.55919 -4.92449
C 11.09692 -19.00034 -9.83418
C -15.28820 23.41313 -9.98569
C -6.20329 -26.62884 -9.47298
C 8.40014 -26.61547 -13.19406
C 0.46850 26.64875 -4.82639
C -9.01902 20.42398 -10.45965
C -5.83683 13.81705 12.13867
C -1.13367 -4.25561 -5.58957
C 6.08678 9.77229 -4.95680
C -10.89933 23.55412 -10.43112
C 7.05067 4.10568 -6.77924
C 7.99197 0.22672 -5.25765
C 3.73022 2.59238 6.11724
C 0.14797 5.14848 13.26781
C 7.63567 -1.14243 -3.18251
C -2.01308 -5.04095 -1.87295
C 6.19837 4.23744 2.00582
C -8.92457 17.96078 -8.28003
C -2.76010 -2.72579 -6.83927
C 8.85442 -11.80712 6.84408
C -8.74224 -7.40271 5.32478
C 9.62218 -7.51176 6.81450
C -1.66172 -3.89281 0.98690
C 6.88041 8.87295 -2.94033
C 5.96894 -0.37065 -6.86484
C 23.85198 17.56610 11.28984
C -9.70366 18.36629 -7.35749
C -22.26159 13.22222 -8.16764
C 7.09437 14.85261 20.44067
C 4.89538 10.22948 -5.60077
C 1.82992 -5.47468 -2.02626
C -12.67176 -22.65290 12.66221
C 0.50749 9.84204 0.15230
C -7.24702 -4.37432 -7.09266
C 1.95444 11.48612 -12.22262
C 5.97680 6.18045 0.37517
C 4.77525 -2.29392 3.00536
C -1.08657 -2.36261 11.53418
C 13.21749 10.30889 20.46444
C -7.23773 2.82051 -11.29543
C 0.36217 -29.69882 -7.90200
C -19.90391 0.54082 4.79760
C -2.30032 0.33658 -10.70610
C -12.35011 -28.41848 4.84401
C 1.31697 6.97104 2.69565
C 14.14815 -18.07711 -4.46396
C 22.59175 14.24973 -1.67014
C -16.15938 7.38980 -7.60115
C -0.48660 -3.69643 8.47794
C -16.62096 -0.61017 0.35716
C -7.14830 11.18149 4.85744
C 23.44238 6.77250 4.13121
C -13.42058 -6.30897 6.15499
C 6.18636 -13.81301 -21.68711
C -27.33553 -32.33380 19.74489
C 3.56875 -4.69436 -4.83531
C -7.92633 11.48005 3.92314
C -1.98473 6.54511 -12.06294
C 25.52187 13.63534 -4.08383
C -10.29205 -31.44137 -3.06324
C 12.35708 2.11198 -3.14364
C -4.56782 -4.10454 9.27448
C -9.80503 -1.38604 -13.17889
C -23.95870 23.73484 17.29747
C 4.83683 2.16793 -9.32599
C -5.48201 11.72446 9.13943
C 4.07105 3.94402 5.47326
C 6.32407 -28.99474 -10.27392
C -8.69483 19.01571 -10.76193
C 8.74073 0.89582 -3.12247
C 6.93196 6.66561 -6.00238
C 3.71388 15.30788 19.66951
C 11.94879 -17.80448 -4.87417
C -4.41526 -3.47671 -1.96920
C -11.78338 -1.00213 2.40192
C 7.90186 -12.46069 6.80224
C 0.70288 8.90421 -8.47066
C -17.43755 0.54100 0.57762
C -8.78247 22.81607 -5.34133
C 2.66235 -2.33934 -7.16154
C -7.52194 11.66219 2.27127
C 8.28441 -29.79537 -11.82676
C 7.61741 6.82430 -1.56486
C -6.38778 5.53511 15.88500
C 5.46385 5.61792 -7.93654
C -14.37432 -4.19515 -2.85164
C -3.94136 -0.91808 -9.49638
C -7.85918 -2.88937 -0.48691
C 8.08277 0.25364 0.34200
C -7.06561 13.98063 12.12964
C 3.37063 3.74832 -10.30177
C -9.21694 -0.17576 -13.39712
C -14.02612 23.86524 -10.08199
C 0.20095 10.66872 -1.98733
C 5.84776 -14.72243 23.68617
C -9.42775 21.53591 -10.08174
C -0.08078 -1.39953 -9.16142
C 0.34986 6.64240 3.71246
C 2.92737 0.08276 -9.21298
C 7.05723 -15.91315 25.49791
C 3.60724 12.10812 -4.31982
C 1.47411 9.88382 -8.27812
C -4.52146 5.49562 -12.52409
C 6.45237 -0.66098 3.25465
C 14.64433 -20.66576 -4.85610
C -5.53821 -2.59006 -9.43548
C 2.62856 -5.78420 -2.86036
C -4.11626 8.90811 10.02293
C -3.93374 6.59326 13.87038
C 1.29766 -4.27430 -6.04503
C -5.50045 -3.39434 -1.14085
C 8.55877 -30.78898 -12.48027
C -11.89819 -1.50530 -6.90544
C 2.43224 1.00970 7.65950
C -9.52281 13.78110 12.07709
C -1.02511 -5.37510 -4.55612
C -9.35756 7.45806 -13.35596
C 3.77088 -4.59874 -0.06493
C 3.15117 8.31129 -8.71024
C -7.82768 12.53938 32.01967
C -2.73003 6.35213 14.56771
C 26.60438 16.14942 9.15033
C -5.96179 10.27571 14.85884
C -23.65494 18.14800 -7.71472
C 11.79350 -22.16990 -7.88529
C 29.35923 19.27021 34.13009
C 0.18182 6.13997 7.22985
C -26.25640 -32.36678 16.43954
C 2.39424 -4.77723 0.31737
C -6.38568 11.18972 12.57760
C 5.64643 -4.57107 -1.10569
C 4.73236 10.10099 -2.50047
C -2.64115 -4.44797 7.64161
C 8.99690 -21.51547 -4.15704
C 24.55088 17.19649 10.08142
C 27.17187 17.07512 19.02807
C -9.52101 19.46665 -6.80134
C 25.81203 -22.07292 -10.19915
C 11.09370 12.02457 20.77321
C -2.74420 6.55359 5.59915
C 30.00611 17.86968 32.32424
C 2.66910 5.00204 5.74088
C -12.80099 5.06492 -9.87552
C -6.34774 10.61877 13.75551
C -0.94886 6.93063 3.80455
C -6.24036 -3.56998 -7.70525
C -9.66343 22.92332 -10.01045
C -14.34047 -0.53058 -0.17269
C -5.80236 9.17690 15.51848
C 27.90584 17.74200 21.23795
C -5.99515 -4.25741 -3.64372
C 24.60957 13.62550 -3.17539
C -12.09729 -23.95168 12.73672
C 9.90719 5.13189 -4.21924
C 5.80245 -7.07630 -3.38539
C 0.87946 5.44165 -12.05842
C 2.42259 -3.57555 -6.64271
C 4.64002 -11.48139 -21.19799
C 3.90933 6.23225 -10.20769
C -2.10802 1.81391 10.11855
C -7.82000 -28.27167 -14.04859
C -1.68834 5.16735 -12.66037
C -9.59114 8.57037 -13.89206
C -9.28311 -2.91041 -0.41078
C 6.98519 1.71897 -7.25159
C 8.78251 -26.75565 -11.83994
C -9.05306 -2.43670 -12.34318
C -6.63838 -27.45521 -11.84322
C -9.46469 -4.59379 -6.17426
C -25.08474 24.23418 17.37762
C -6.88044 -26.44477 -6.94690
C -27.55661 -32.88310 18.57534
C -7.08888 1.84269 -12.24873
C -10.88695 -6.48833 5.86076
C 6.72519 -2.03373 -5.31001
C -4.01222 4.27464 -13.27185
C 7.80865 -14.36464 -19.78854
C 3.59610 10.75054 -2.14856
C -5.81498 4.45375 16.38241
C -23.60215 19.32529 -7.96321
C 4.75284 4.61770 -8.73691
C 24.96420 -21.13316 -10.47574
C 3.78864 4.69940 3.24815
C -1.44387 -4.60165 4.83300
C 14.13688 -21.07734 -5.88999
C -0.10145 -33.21496 -5.80006
C 3.79675 11.23057 -5.46597
C -1.93504 9.98501 0.31638
C 8.98322 5.39691 -5.46276
C -9.61459 -4.46938 6.73676
C -13.88804 5.51320 -9.03226
C 6.13363 7.94787 -6.05208
C 28.96325 18.08147 23.61164
C 5.06094 -13.11327 22.12477
C -0.76449 8.52308 1.64388
C 24.53932 10.35747 5.01700
C -2.71331 -3.98583 -1.15626
C -6.38908 -26.47603 -8.11256
C -11.25037 -0.43143 -7.16847
C -11.32737 -3.08408 -13.20551
C 30.41267 17.13751 28.44002
C -6.38283 -2.34058 1.52709
C -12.89185 -4.41275 -0.83251
C 8.80497 -25.58783 -5.41832
C -22.63720 21.18741 -8.73153
C -0.99565 -4.52280 3.49541
C 10.39737 -25.55769 -10.23660
C 14.70851 -19.62903 -4.01438
C -2.72093 3.19315 9.78681
C -9.81333 -3.68671 5.78853
C -11.61757 -3.88600 -0.94292
C 5.40276 3.43496 -8.52395
C -9.44043 -1.31171 3.24958
C -0.22641 -2.56376 10.52350
C 20.21934 13.80121 -1.39342
C 15.30743 2.23063 -5.08194
C -7.12670 -3.93743 -2.84601
C 7.17885 5.98487 -0.32723
C -25.96849 22.45301 22.58154
C 9.37053 -20.25177 -8.40970
C -13.29098 -26.73424 6.07373
C 1.16694 0.38460 8.30564
C 9.16945 -22.76009 -4.42874
C 4.61179 -4.68749 -3.87562
C 6.87552 -0.68110 -5.65350
C -4.38425 -2.06999 -8.88131
C 0.85532 10.24836 -1.04151
C 10.12641 -7.07190 5.55613
C 7.16164 -23.52451 -8.17952
C 8.58272 -0.31836 -1.04807
C -4.90011 -2.54123 0.75240
C 2.62639 -5.51868 -4.28448
C 5.56906 1.33160 4.49674
C 4.45800 -5.19871 -0.97071
C 2.31032 -2.25375 6.23229
C -1.31043 7.34381 -11.20042
C -5.87161 -0.43477 -11.29555
C -6.47616 14.37011 33.50580
C 8.98569 -21.79063 -8.38890
C 5.19673 -13.60313 -22.56472
C 1.69902 -29.21062 -7.64423
C -3.49135 -4.16866 -5.24626
C 6.51358 -14.49393 -20.35373
C 4.18233 -0.01094 -8.31828
C -8.95521 -4.22875 -8.58318
C -7.13419 -27.80334 -12.94810
C -14.76287 -24.54602 9.27739
C 9.47438 -16.41998 26.53212
C 1.71356 -4.08937 1.46241
C 3.55952 11.80442 -3.07438
C 8.20760 -16.67175 25.85687
C 4.89513 9.57115 -6.91862
C 24.36753 18.61664 10.86508
C -1.85216 -2.21872 -7.51977
C -6.98002 -3.41940 -1.31272
C 5.75535 3.47383 3.19530
C -14.26236 -3.11521 -5.24385
C -3.89432 17.23567 33.24641
C -8.69601 -4.35934 -7.33137
C -6.57216 -3.44360 -8.90761
C 0.94005 24.58095 -3.37424
C 24.60017 6.48885 4.20895
C -2.90771 -3.65137 5.07239
C 1.91458 -1.68924 -7.91178
C -9.58402 1.30282 -13.26956
C 7.60949 -0.64384 1.22735
C 10.09979 1.61630 -1.34094
C -11.72204 -25.23258 -15.93923
C -8.51584 -4.11388 -3.67615
C 4.12378 -29.11302 -9.01592
C -4.73115 16.21545 34.03695
C -6.85877 -7.18529 1.79848
C -6.96857 -4.84840 -5.74727
C 6.45336 5.61458 -6.99184
C -3.44320 -4.74752 -3.82320
C 1.89521 -1.13730 6.95004
C -1.65355 -1.30186 -8.62099
C 7.34490 2.47831 1.41309
C -22.87443 14.39208 -8.27224
C -7.79104 -7.81738 4.33638
C 8.58037 -26.01253 -14.26681
C -4.59901 -0.19018 -10.35159
C 8.54008 2.74630 -5.27269
C -2.81055 -0.35710 11.49352
C 29.50664 18.00955 24.85608
C 4.66558 -3.22859 -6.45419
C -3.80934 1.81453 -12.21197
C 27.48409 17.41410 20.13567
C -10.37530 14.42290 12.83043
C -11.33157 -2.98431 0.92223
