80
C80 1000 K last frame of liquid_carbon.lammpstrj
C 0.76699 4.11700 1.92631
C 1.87620 -1.69635 -1.55542
C 0.32270 4.94521 -0.59247
C 1.05549 -0.25352 3.86185
C -1.27349 -0.08054 2.22237
C 2.87332 4.50614 0.82172
C 3.09338 -2.09805 -2.07550
C -2.46000 -5.47885 -0.85532
C -4.22981 -2.39736 -2.31001
C 0.97818 -1.12643 -0.82095
C -0.89140 5.51436 -1.33109
C 0.96931 2.20058 3.43723
C -0.71194 1.83213 -4.23865
C 3.81558 -1.84600 2.12331
C 1.47079 3.25209 -4.40468
C 3.52652 -4.21305 -0.71408
C -1.02619 -7.35533 -1.79855
C -4.77114 -0.74009 -0.51992
C 1.96907 -2.38524 3.58247
C 3.80778 -1.21084 -2.82406
C 0.13229 -0.81856 0.19472
C -4.95465 1.83248 -0.20207
C 2.88229 -2.72708 2.52391
C 0.43316 -4.02766 2.81566
C -0.36757 -0.21342 1.23575
C -3.91115 -1.26133 0.45408
C -2.10047 -4.77297 0.37677
C -3.04740 1.21988 1.29881
C 1.51023 4.91616 -2.73443
C -4.08898 -1.07244 -2.10713
C -3.75561 -3.60745 -2.24188
C 0.70884 -2.87004 3.47053
C 3.15447 -4.47337 0.49844
C -2.10139 5.17430 -0.67540
C -2.63961 0.33247 -3.54069
C -2.44733 -0.79438 2.09797
C 1.95396 -1.17799 4.01992
C 3.45874 3.29113 -1.27026
C -2.56317 -2.39847 2.12940
C 4.07986 1.14734 -3.36224
C 0.21441 2.97246 2.66499
C -1.78535 1.36725 2.06086
C -3.56049 -0.09220 -2.79684
C 2.19162 4.15599 1.90203
C 0.40736 2.51240 -4.34324
C 4.23275 0.19879 0.73828
C -1.06837 -4.96562 1.25379
C -3.01339 -3.72095 0.14996
C -0.81297 5.51046 -2.80698
C -0.62256 -2.21475 3.65598
C 4.21040 -0.14548 -3.39651
C -0.01442 4.32009 0.78238
C 4.26545 1.39504 0.19001
C -3.47334 3.32646 0.42361
C 0.39397 -5.17646 0.89928
C -2.32809 4.05262 0.17637
C 0.35322 5.53707 -3.25588
C 1.50744 4.88392 -1.28121
C 3.26990 3.30634 -2.69200
C 2.68270 4.31537 -0.50887
C 2.57011 -3.96469 1.66681
C -3.30027 -0.20586 1.32456
C -1.06376 2.58708 1.96606
C 3.56713 -3.43189 -1.68342
C 2.15765 3.79595 -3.33294
C -0.93332 -4.19003 2.48183
C -0.45339 -0.67499 3.41700
C 1.33731 1.02227 3.60087
C -1.73288 1.17892 -3.75974
C 4.08244 2.40706 -0.51419
C -1.86545 -6.57457 -1.39639
C -1.60675 -3.01933 2.94594
C -3.25434 -2.58498 0.86512
C 1.23323 -4.56330 1.81767
C -1.19557 3.57497 0.86243
C 4.14282 -0.98160 1.21253
C 3.99712 2.38825 -3.36564
C -3.18428 -4.37046 -1.28623
C -5.17725 0.66528 -0.34153
C -3.86861 2.21868 0.78684
