80
C80 5000 K last frame of liquid_carbon.lammpstrj
C -0.87933 0.84201 -5.18001
C -2.14741 -18.38747 -14.61937
C 1.94048 -23.14585 -23.64678
C -13.13810 3.42989 9.09235
C -5.66844 -7.47674 12.12457
C -2.16374 -18.65083 -12.02156
C 15.35301 14.23314 15.26787
C 15.92672 17.58672 13.39499
C 24.24547 -17.33920 -21.38862
C 4.11342 21.70168 9.71996
C 0.60522 1.31920 -5.28956
C -11.49664 23.49872 -15.30157
C 3.37525 -25.29735 -26.73720
C -6.50876 -6.58953 11.58751
C 1.63823 -21.83975 -23.62453
C -4.07159 -11.21851 11.78831
C -11.82894 2.95857 8.99071
C -4.83937 -10.08935 11.76819
C 26.98340 -16.55773 -23.57540
C -17.19747 4.05217 11.37388
C 25.81498 -17.08552 -23.35245
C 2.39759 -19.62159 -23.73362
C 15.22044 15.61549 11.94167
C 0.66753 -11.98860 13.56936
C 27.33239 -16.64219 -24.86270
C -5.24681 -8.79603 12.23149
C 4.26089 22.63802 10.68230
C -23.35618 -18.40607 9.62186
C -2.18914 -17.14199 -17.01978
C -16.78754 3.85775 10.10347
C 4.73296 21.66239 8.33842
C -0.29208 -12.92135 13.72253
C 24.05212 -16.59216 -20.43312
C 1.59682 -20.50008 -23.12472
C 2.93151 25.30686 14.35032
C -8.57407 5.53636 -1.82755
C 2.97658 24.72650 13.12833
C 2.60220 -23.93766 -24.67123
C -3.51871 -12.22892 12.55487
C -15.65768 3.05981 9.52676
C -10.16812 26.80190 -16.62309
C -10.96074 24.65512 -15.71230
C -9.18241 5.05273 -0.86708
C -22.20748 -18.10495 9.27551
C 3.04147 -24.58508 -25.73947
C -14.50512 3.33230 8.96399
C -1.85663 -18.47304 -9.76461
C 15.22931 15.63800 17.66419
C 24.80818 -17.06595 -22.48227
C 1.89161 25.18463 15.40592
C -5.15104 5.47588 -6.61159
C -6.49715 6.39012 -4.65496
C -2.68742 -19.05821 -10.76538
C -24.91454 -18.13942 9.24408
C 16.16088 15.70598 18.59890
C 1.40326 1.40994 -6.34894
C 15.36436 13.55606 14.26431
C -2.01282 -18.32608 -13.31179
C -12.67509 2.93429 7.71745
C -2.04227 -17.82328 -15.66673
C 15.74838 13.60787 12.77682
C -1.60812 -12.47981 13.92561
C 0.42901 25.13566 15.60273
C 15.32923 16.67005 14.07065
C 15.31651 14.25383 11.84606
C -25.55233 -17.52094 8.28894
C -3.48749 0.84652 -4.63834
C -5.90341 6.61495 -5.77563
C -2.24744 0.88525 -5.38411
C -7.35856 6.04037 -3.95335
C -21.02639 -17.70805 8.63939
C 15.09218 15.10155 16.35179
C -2.60904 -12.59816 13.14380
C -4.83881 6.87147 -6.63040
C 4.47279 22.89332 11.92666
C 15.86878 16.69028 12.38722
C 3.94334 23.42354 12.89402
C -10.23413 25.52920 -15.94722
C -8.53235 5.80794 -3.08895
C 0.95441 25.80341 16.50821
