80
C80 3000 K last frame of liquid_carbon.lammpstrj
C -7.93126 -5.18873 4.60326
C 14.96595 -29.21156 14.41559
C 11.75371 16.04539 13.51329
C -12.74460 -6.38096 4.47567
C 10.26404 10.83713 8.80518
C 14.38985 -30.36001 14.00141
C -15.12513 -5.37853 3.91219
C -16.69637 7.62008 -12.49621
C 13.43293 -11.10351 -16.18934
C -9.12832 -5.26216 4.08607
C 11.82930 1.47458 -1.01759
C -11.42348 -6.10167 4.49189
C 12.61441 -9.29560 -11.21951
C -20.23940 6.33238 -2.65834
C 16.02624 -4.12950 -4.77906
C -17.91868 -0.32935 1.79000
C -16.15399 7.13077 -13.51771
C 11.53202 5.60521 4.45052
C -15.69413 -4.34146 3.82839
C -16.69850 -3.55786 3.17990
C 15.20665 -28.00132 14.48737
C 11.98412 6.92186 4.27902
C -20.41886 5.44597 -1.95033
C -19.22889 8.16718 -8.27038
C 9.69828 11.58083 9.59713
C 11.47844 8.89344 5.86562
C -17.40904 7.52847 -11.47339
C 11.01838 4.53220 3.96714
C 14.00153 -1.09941 -3.06136
C 12.58131 -11.72625 -15.34897
C 14.61879 -11.40687 -16.75145
C -19.14281 8.08901 -6.87302
C -18.90799 0.60526 1.82487
C 11.19744 1.81996 0.05552
C 11.30379 -10.75128 -12.98319
C 10.60770 10.11767 7.72562
C -19.78603 7.20119 -3.59939
C 13.79718 19.18366 14.52554
C 13.78825 -8.18409 -9.15647
C -19.78385 -4.41877 5.45129
C -10.37673 -5.61435 4.25565
C 9.17283 12.12986 10.70475
C 11.91720 -11.34411 -14.18177
C 15.91319 -27.16450 13.72467
C 13.00010 -8.71967 -10.12064
C -20.81610 -4.92024 6.18586
C -17.99067 7.89698 -10.49766
C 15.43640 -5.98780 -6.52824
C 12.36920 0.53297 -1.78608
C -19.76773 8.58014 -5.82870
C -19.60915 1.31849 1.02394
C 10.91638 15.39157 12.73456
C -18.43987 -3.95673 5.17982
C 10.32624 2.26476 0.90177
C -19.90324 2.62814 0.39183
C 10.52228 3.02367 2.08697
C 13.56819 -0.25868 -2.07210
C 12.07395 17.20944 13.88739
C 15.71664 -2.94430 -4.30871
C 12.79352 18.28418 14.12019
C -20.17719 4.51177 -1.03093
C 11.21386 9.64114 6.70391
C 9.55431 13.29620 11.35208
C -17.31009 -1.46021 2.25142
C 14.72875 -2.05729 -3.72775
C -18.62359 7.97195 -9.29137
C -20.03540 8.12232 -4.47656
C -13.91129 -5.86584 4.23142
C 11.83472 -10.10173 -11.88934
C -17.40367 -3.66022 4.39810
C -15.79395 6.28721 -14.42318
C 14.97802 -7.03669 -7.32349
C 14.21536 -7.89797 -8.01173
C -20.48344 3.66110 0.05460
C 10.08478 14.41640 11.94188
C -16.87457 -2.51912 2.55473
C 15.79902 -5.16377 -5.73203
C 15.75441 -11.40281 -17.23949
C 11.71949 8.22533 4.70577
C 10.24883 3.77907 3.09169
