80
C80 500 K last frame of liquid_carbon.lammpstrj
C 1.20484 3.05190 2.01995
C 0.82818 -0.89800 -0.32677
C 1.27237 3.17210 -0.34482
C 0.62236 1.03166 4.62689
C -3.95053 -2.25890 3.40357
C 2.31253 2.12190 1.65621
C 0.04555 -0.75200 -1.44120
C 0.74960 -3.72718 -1.23391
C -2.63398 -0.75372 -3.08666
C -0.34379 -0.18893 -0.17200
C -1.38663 4.28293 -1.08390
C 0.02497 2.41857 4.21864
C -0.99481 1.37147 -3.28422
C 3.79445 0.12325 1.89204
C 3.34179 0.51102 -2.93169
C 3.10687 -1.69234 0.45844
C 0.11688 -3.56643 -2.29425
C -4.14657 -0.43880 -1.12101
C 2.50958 0.25293 3.50845
C 0.44011 -0.37898 -2.83379
C -1.43632 0.28213 0.39456
C -3.56647 1.65485 0.04741
C 3.26777 -0.80898 2.94675
C 0.82367 -1.43988 4.06493
C -2.43480 1.05102 0.64251
C -4.59938 -1.08749 -0.00968
C 1.48235 -3.27828 -0.20800
C -2.64752 3.96365 0.94004
C 1.30715 1.97499 -2.43300
C -3.36830 -1.26346 -2.02714
C -2.02904 -1.78404 -3.91137
C -0.46627 -1.59145 4.46248
C 2.97983 -2.64895 1.46271
C -2.66831 2.78160 -2.43447
C -2.25256 0.63254 -3.12509
C -4.61210 -2.03027 2.32229
C 1.29032 -0.06290 4.19000
C 4.14049 -2.03164 -3.03277
C -2.36561 -3.96586 0.49099
C 2.32424 -1.41808 -3.99831
C 0.15662 3.21869 3.13590
C -2.30335 3.76919 2.27281
C -3.24141 1.50216 -2.42768
C 2.86957 1.08134 2.35677
C 0.38505 0.99141 -3.17010
C 3.88483 0.39990 -0.61781
C 1.93769 -3.62392 1.12777
C -3.18053 -2.53565 -1.48561
C -0.53582 3.52240 -2.07438
C -1.61441 -2.04933 4.32829
C 0.95806 -1.48251 -3.53927
C 0.80668 3.81365 0.81914
C 4.28984 -0.12419 -1.83024
C -2.75662 3.60691 -1.25637
C 0.93839 -3.41592 2.27373
C -1.41847 4.60256 0.29551
C 0.76557 3.05778 -1.67820
C 3.01121 1.49699 -0.77314
C 3.39096 -2.54700 -3.99441
C 2.30756 2.18644 0.17566
C 2.83266 -2.12593 2.83178
C -4.74994 -1.46882 1.21015
C -0.88166 3.86216 2.42120
C 1.89353 -1.76493 -0.27765
C 2.57371 1.52578 -2.12635
C -0.38906 -3.89980 2.17102
C -2.85831 -2.26894 4.13028
C 0.05706 1.89621 5.55319
C -1.29052 2.73131 -2.94532
C 4.72886 -1.44292 -2.05182
C -0.00585 -2.71222 -3.41942
C -1.40524 -4.07652 1.36826
C -2.76387 -3.45546 -0.74359
C 1.45381 -2.43522 3.25138
C -0.37532 4.49626 1.24705
C 3.83890 -0.42202 0.59304
C 3.04081 -0.05823 -4.09498
C -1.16976 -2.56784 -4.27617
C -3.94136 0.97574 -1.16192
C -3.32278 3.12850 -0.03330
