80
C80 4000 K last frame of liquid_carbon.lammpstrj
C -2.49979 -5.11303 -5.99721
C -0.32052 6.46616 -7.46341
C -16.39468 4.35740 -20.54495
C 12.64503 -1.18843 7.62372
C 6.03233 -5.97023 4.25464
C -4.40876 -8.22099 -6.14043
C 0.01067 -3.48745 -7.51213
C 13.05947 -0.75691 8.61648
C -15.48664 1.88810 -20.75280
C 10.69186 -2.44982 6.36928
C -0.03328 7.81080 -7.30981
C -0.98345 9.04603 -6.95920
C 0.87340 4.35030 -8.81981
C -0.34150 10.98369 -5.42923
C 9.57079 -1.38208 -18.22246
C 9.28710 -0.26715 4.32779
C -6.01336 10.11681 17.43503
C -1.80152 13.07332 -30.73145
C 14.12543 0.88454 10.42929
C 6.29062 -0.41330 -20.90230
C 7.87920 -5.00313 2.96602
C -19.07380 -23.84235 16.74269
C 6.56838 2.95320 7.13031
C 7.16039 1.89641 6.64526
C -18.24910 -23.40551 17.54575
C -4.15661 12.87206 19.22532
C 0.33933 11.44898 -4.50511
C 0.42029 12.77511 19.22639
C 9.18469 -2.78167 3.27308
C -18.39987 5.76130 -20.22806
C 5.68638 5.19296 8.36772
C -18.15188 -26.34009 15.91007
C 7.38974 -0.51865 -20.15034
C -5.06263 12.26659 18.66925
C -18.54708 -24.89843 15.70806
C 5.78063 7.76902 9.09019
C -8.74324 7.87857 14.89536
C -2.47211 -4.16859 -6.85446
C -0.68101 9.87251 -6.10727
C -5.63492 11.21126 18.12773
C 4.58022 7.41390 9.17240
C -3.82141 -7.13561 -6.18144
C -18.44968 -27.46380 16.97335
C -2.84062 -6.29717 -5.76199
C 2.46497 2.23789 -9.26709
C 6.25493 -5.51575 5.36739
C 8.65843 -3.46448 6.42950
C 5.36635 -0.05256 -21.75347
C -19.51919 6.23819 -19.70190
C 8.63719 0.25770 5.24192
C 7.55759 0.77083 6.13689
C -7.42152 8.52960 15.56651
C 9.84079 -3.26140 5.97173
C 11.74626 -1.70075 6.60298
C -0.69287 12.52242 -31.03137
C -7.70840 7.36990 15.38168
C 7.52043 -6.17301 2.42860
C 6.35814 -6.40687 2.84308
C 9.26282 -1.54253 3.51500
C -17.18278 5.20832 -20.05788
C -6.54419 9.43790 16.25348
C -15.76394 3.21834 -20.63783
C -1.05732 -3.80657 -7.29293
C 6.28443 3.99645 7.70889
C 1.22928 12.91322 18.20930
C -3.44657 -9.10359 -5.81461
C 13.59212 1.96105 10.07047
C 7.50426 -4.03952 7.22724
C 1.70718 3.49148 -9.41132
C 6.96415 -5.03268 6.66179
C -17.29989 -22.73213 18.02715
C 8.35826 -1.39258 -18.12837
C 5.40270 6.42576 8.69263
C -2.92279 13.54096 -31.24540
C 8.60875 -4.05924 3.46770
C 8.27852 -1.24161 -19.44791
C 13.38396 0.24822 9.57129
C 0.55037 5.27919 -7.68916
C 5.46505 0.93833 -20.93642
C -16.44594 -22.24510 18.88912
