80
C80 2000 K last frame of liquid_carbon.lammpstrj
C 2.34746 2.72406 2.63097
C -3.09511 1.82934 1.45596
C 1.70358 3.32758 0.23938
C -1.70110 -0.50663 4.34335
C -3.04588 -0.70146 1.89402
C 3.56748 1.01214 1.00320
C -2.60108 1.71528 0.18803
C 0.21725 -3.59477 -3.03840
C -1.96932 -0.59733 -4.98377
C -2.61036 2.81120 2.58164
C 0.51281 3.73507 -0.22265
C 1.27272 1.35260 4.44347
C -0.10902 -2.95338 -5.48809
C 1.74951 0.20304 3.97657
C 0.89606 -1.30827 -4.04257
C 2.05130 -2.40035 0.03376
C -2.91823 -6.99549 -5.19705
C -2.20551 0.15468 -1.70142
C 0.64142 -0.82404 4.12733
C 0.46003 0.62848 0.70720
C -1.01088 2.40650 4.54597
C -1.88578 0.89610 -2.79993
C -0.08610 -1.89350 3.53765
C -1.92045 -2.58913 1.46549
C -2.24424 1.99369 3.74692
C -2.82115 0.43893 -0.38072
C 1.28717 -3.04093 -2.08179
C -1.69445 3.89455 2.74777
C 0.45268 -0.06513 -0.44145
C -1.95498 -1.67404 -5.73771
C -1.33888 0.04118 -3.95406
C -2.27800 -1.59653 2.35372
C 1.82530 -1.94369 1.53180
C -0.80202 3.66485 0.28359
C -1.86251 -6.57036 -4.61218
C -3.22519 0.64353 2.21852
C -0.41547 -0.02919 4.84883
C 3.43380 0.38286 -1.42904
C -1.28600 -1.27983 -1.75846
C 2.24739 -2.12877 -2.32979
C 1.64356 2.65389 3.85627
C -0.77921 3.56580 3.97510
C -1.18573 -2.48288 -6.38118
C 3.05714 1.37750 2.25542
C 0.21497 -2.54812 -4.24662
C 2.82135 -1.01364 1.90730
C 0.93641 -3.12351 -0.62233
C 0.35864 1.26156 -3.27606
C 0.56350 3.28018 -1.71217
C -1.52417 -1.63551 3.49796
C -0.16423 0.88773 1.84327
C 1.62693 3.53031 1.74340
C 3.45144 -0.40266 0.72889
C -1.67382 2.71813 -0.34026
C -0.43991 -2.91262 -0.16978
C -0.63168 4.21976 1.88910
C 1.92750 2.62317 -1.85726
C 2.61325 2.61065 -0.69695
C 2.48814 0.35655 -2.51827
C 3.44298 1.49633 -0.42264
C 0.52705 -2.47943 2.25583
C -3.06880 -0.68513 0.47050
C 0.57942 3.87240 3.72096
C 2.85177 -1.82389 -0.92508
C 1.69283 1.61520 -2.78275
C -2.29443 -1.83074 0.24678
C -2.65599 0.55811 3.63509
C -0.13751 1.35149 4.96892
C -1.00779 -5.55322 -4.24692
C 3.73265 -0.81369 -0.56961
C -0.51782 -4.70236 -3.46576
C -1.29498 -2.01800 -0.73406
C 0.05538 -0.41285 -1.68510
C -0.66981 -2.98724 1.33642
C 0.71777 4.33803 2.38900
C 2.75084 0.06424 2.89884
C 1.99736 -0.86165 -3.21290
C 0.05026 -0.04252 -3.98037
C -0.81703 1.97990 -2.79933
C -0.82250 2.80588 -1.67973
