72
t = 20 ps, 28 molecules: 13xH2O, 6xCO2, 4xH, 2xHO, 2xO2, 1xC2O
H     0.964697     2.545020     9.295240
C     6.221620     4.613440     3.261680
H     4.593720     7.197080     1.890810
H     4.597910     1.602620     3.381450
H     6.795570     0.249981     3.838710
O     2.612930     1.453290     5.025580
O     1.331030     1.484950     2.522680
O     8.415810     3.357680     5.686530
O     3.935340     6.419710     4.548500
H     8.390980     9.979850     2.840530
C     3.952080     6.970160     5.631080
H    -0.357280     9.523290     5.039040
H     3.793850     3.581450     8.628480
H     7.842760     3.621820     4.381260
O     1.899710     8.068030     1.853180
O     3.432370     4.072770     6.488760
O     0.394932     9.047720     5.649490
O     7.458450     6.829820     2.384760
H     1.367120     2.747780     1.989490
C     5.772470     3.634180     6.148160
H     7.676120     0.063687     5.182210
H     9.228530     8.954010     2.641280
H     0.903156     8.259830     1.691620
O     8.502260     4.128080    10.025212
O     6.913290     3.632050     3.612780
O     6.834010     8.170830     8.081870
O     6.524800     7.097080     8.058170
H     1.920280     4.214180     2.952350
C     2.583210     4.104540     5.551490
H     1.861560     7.765110     2.846630
H     0.339633    -0.011029     7.266870
H    -0.435270     6.890510     4.578860
O     5.312800     5.272240     3.389210
O     0.221701     6.624400     3.869170
O     5.268780     2.600440     6.148360
O     5.465030     7.753790     1.876420
H     3.137890     4.695470     9.053840
C     0.737534     5.752380     7.851960
H     5.723310     7.188590     1.256730
H     0.569220     0.970729     9.110500
H     1.716860     1.152450     7.834410
O     8.995550     9.465870     3.437850
O     7.450150     0.822479     4.461110
O     4.218810     2.464090     3.228220
O     4.180860     7.724340     6.403850
H     0.744181     5.930790     4.407950
C     8.632520     3.827380     8.966880
H     0.744747     4.657400     1.415240
H     8.070620     7.159190     1.746500
H     3.863530     2.132930     2.172270
O     6.721690     0.347088    -0.186320
O     6.152340     0.345847     0.803251
O     3.732500     4.025400     9.603030
O    10.459184     3.825530     5.527520
H     3.383500     2.036270     5.220050
C     2.263360     4.248340     4.250720
H     1.120730     8.390130     5.522630
H     2.386500     5.700830     0.735335
H     1.794700     1.224400     1.806430
O     1.316360     3.891480     1.694180
O     1.285190     1.689400     9.029020
O     0.926257     5.334320     9.250840
O     1.707160     4.850860     7.641480
H     2.396350     1.838300     4.088290
C     9.477940     3.648400     5.093760
H     6.939190     7.454730     2.805680
H     2.514350     6.421930     1.762330
H     1.501560     0.859904     6.202200
O     8.949660     3.380960     7.772670
O     6.054780     4.855230     6.349760
O     3.220030     5.937880     1.269780
O     0.813447     0.999736     7.019060
