72
t = 50 ps, 27 molecules: 12xH2O, 7xCO2, 3xH, 3xHO, 1xH2O2, 1xCO
H    10.304994     7.901260     0.962243
C     4.061630     3.499460     6.503950
H     0.624247     3.752340     8.225650
H     6.463860     5.498560     2.916060
H     2.601020     4.915530     2.560790
O     1.274420     4.339890     8.785430
O     0.183864     2.128170     0.659636
O     2.196860     8.098670     9.285740
O     6.088760     5.410360     7.504860
H     6.585180     3.620020     0.279101
C     4.388120     0.700457     8.121410
H     5.375680     3.534010     9.417510
H     2.229820     1.170580     2.770430
H     7.306910     5.851170     0.892179
O     7.905220     2.533730     3.134230
O     9.157370     6.966230     7.822440
O     5.787730     1.377230     6.019370
O     5.681390     4.593980     2.893940
H     3.423860     9.689350     2.058760
C     0.951124     1.132410     6.144900
H     6.438420     9.986890     4.549290
H    -0.292270     0.571565     2.176050
H     3.772920     5.988480     2.898180
O     0.410670    -0.037450     2.655130
O    10.908586     8.068340     6.948160
O     9.986650     7.019540     0.913885
O     5.488170     7.265930     1.447200
H     5.569670     7.412750     0.428538
C     9.907380     7.775810     7.347140
H     5.836990     0.819039     6.740140
H     7.007770     8.640650     4.332730
H    -0.058160     3.697750     3.099870
O     4.685850     4.051880     5.691460
O     3.575590     5.442680     2.133320
O     0.318524     2.086330     6.382680
O     7.513560     6.479340     3.646580
H     4.807990     1.403120     5.586170
C     7.234170     4.822960     7.417800
H     8.535320     6.425840     3.967950
H     0.194660     3.057890     0.791367
H     4.214630     8.958210     3.454170
O     7.523330     4.937670     0.923443
O     6.750330     4.203260     0.972809
O     7.126380     9.421480     4.060950
O     3.533000     0.192737     8.825600
H     0.096483     5.111870     1.986080
C     4.244440     6.715430     8.298980
H     4.556560     6.748000     1.631520
H     0.842455     1.602320     0.434679
H     9.209640     7.003940     0.225479
O     2.542850     7.987990     5.135120
O     3.820820     5.634780     7.859710
O     3.959060     9.829170     3.258010
O     4.192220     9.473590     6.037830
H     8.124160     1.873600     2.504510
C     1.297450     9.015840     9.052780
H     0.492198     0.569739     3.488460
H     4.908180     4.253620    10.010992
H     0.838544     5.269200     9.077470
O     3.199580     2.687350     6.814230
O     0.419019     4.353240     2.474020
O     7.974700     3.862140     7.306800
O     0.912893     9.998209     8.465770
H     4.874190     4.181020     3.179670
C     3.385240     8.635500     5.604470
H     7.119360     2.879920     3.018680
H     8.463700     6.936360     3.214740
H     2.544160     2.822000     2.842280
O     4.483780     7.880410     8.437710
O     1.958730     0.467164     5.964390
O     2.503390     2.064620     2.235240
O     4.436130     3.311120     9.893730
