72
t = 10 ps, 26 molecules: 12xH2O, 4xHO, 3xCO2, 3xH, 3xO2, 1xC5HO4
H     0.432754     5.801000     1.698820
C     3.760580     0.988407     7.522330
H     0.466494     8.168260     5.744880
H     8.025810     6.259110     6.055290
H     0.033951     5.088810     5.052260
O     3.144520     5.276650     3.291260
O     0.268304     8.241370     4.749980
O     1.726280     3.075050     5.960620
O     3.762490     2.110390     7.343520
H     6.774340     8.044580     8.381810
C     4.314620     4.609490     8.251530
H    -0.491450     7.761860     4.535940
H     5.734550     0.862777     8.160260
H     7.698250     7.681840     3.427240
O     7.517740     1.756740     5.134590
O     6.568300     1.814910     4.443640
O     0.572910     5.861270     4.767270
O     6.157160     5.411780     4.713360
H     6.137680     6.312450     4.349050
C     0.299848     2.464080     8.482710
H     1.586510     7.076240     0.402942
H     5.853940     4.479110     4.547720
H     1.541210     6.193780     5.260580
O     0.862616     1.335550     4.701840
O     2.440830     2.785150     0.599339
O     5.835800     2.364570     1.611490
O     6.008870     1.701560     0.592033
H     2.164060     3.447960     1.328410
C     0.948611     3.852190     8.781810
H     1.799560     3.129290    -0.182650
H     2.250800     5.702530     3.237060
H     3.623840     8.434530     0.133901
O     3.448450    -0.176980     7.076400
O     7.172310     8.285880     3.982740
O    -0.790430     2.811280     9.088560
O     5.467210     7.360580     2.525680
H    -0.328810     5.220040     0.610085
C     5.401250     3.120080     5.830720
H     2.100860     7.597470     5.874130
H     8.833280     6.849350     7.146740
H     4.914870     8.112360     2.221800
O     9.522190     6.175760     9.056340
O     2.833880     6.943440     5.813000
O     9.161260     7.685690     1.693860
O     4.626440     5.765320     7.962870
H     5.506310     6.794340     8.523500
C     1.762050     4.441520     7.905350
H     6.824670     0.609825     7.130290
H     7.379470     8.453460     5.049090
H     8.971510     5.405070     8.860610
O     8.752280     0.771350     2.197210
O     9.398650     0.924918     1.073750
O     7.650430     6.806500     6.874570
O     4.502730     3.964930     9.346760
H     2.792640     6.186920     6.468130
C     2.959940     4.513210     7.393920
H     3.759760     6.105900     2.956220
H     6.118970     7.559000     1.842060
H     8.908660     8.327480     1.065700
O     3.272950     7.733780     0.644141
O     0.362426     4.934270     1.180170
O     4.426540     2.812310     5.106320
O     5.780360     3.394340     6.939740
H     0.485912     7.507160     1.507340
C     1.306660     2.143160     5.326710
H     8.625440     6.790130     9.091640
H     3.938600     7.105110     0.387731
H     3.226030     4.714920     6.550010
O     6.762260     0.806733     8.114510
O     0.870271     1.406660     8.165990
O     5.935810     7.453940     9.036300
O     1.465290     6.839800     1.453170
