72
t = 40 ps, 30 molecules: 11xH2O, 6xH, 5xCO2, 4xHO, 1xC2O3, 1xCO, 1xO2, 1xO
H     2.133320     2.721580     9.203070
C     0.794090     4.756490     7.476690
H     7.464490     6.774820    10.247449
H     5.671490     4.190410     1.421750
H     8.311180     3.146910     0.733369
O     0.634858     1.609750     9.286190
O     8.918660     8.853260     9.496950
O     7.860780     1.461280     4.105200
O     8.240610     6.064410     4.581090
H     1.128490     1.972660     2.809760
C     9.150250     1.594760     6.671680
H     2.629690     2.971250     5.688940
H     6.215850     3.545460     9.991401
H     0.996876     5.591340     2.129580
O     4.105410     6.525030     9.326540
O    10.246581     0.351132     4.775820
O     2.837940    10.112571     1.670220
O     5.281910     3.994390     0.712566
H     6.548710     8.857850     1.989260
C     7.105710     8.575480     5.195480
H     0.014697     1.940020     1.767380
H     3.561530     3.765520     9.147820
H     7.659120     1.067300    10.097889
O     7.127510     1.720960     9.446940
O     9.726910    -1.669830     3.383650
O     6.072730     3.288220     6.576320
O     5.684790     2.943450     5.713650
H     4.354540     1.362510     9.794630
C     9.600890    -0.484890     3.868790
H     2.837500     9.101840     1.671930
H     9.727330     9.506990     9.375950
H     8.501240     9.460900     8.830570
O    -0.268850     4.819910     6.880860
O     4.200820     0.254176     9.818060
O     6.094660     7.957570     4.962690
O     4.231640     1.595700     3.375000
H     7.858730     5.144920     0.998172
C     9.162500     5.386130     4.250990
H     3.948400     0.971852     2.636280
H     3.551500     6.274060     2.328160
H     5.680000     8.398540     0.434670
O     6.951190     6.914750     9.466130
O     1.514680     4.950300     1.793530
O     0.846967     1.438030     2.110930
O     8.195680     0.814403     6.643560
H     5.216320     1.855880     3.544280
C     2.490730     5.658320     5.260670
H     4.302410     7.149340     1.160040
H     4.129450    -0.218400     8.947740
H     1.995220    10.301070     1.656510
O     0.695263     7.339430     7.381670
O     3.580840     5.425340     5.786200
O     6.290930     9.028140     0.849923
O     0.135318     9.371280     6.751590
H     3.395550     6.235340     8.808890
C     8.179640     0.568953     3.457650
H     7.693330     2.464340     9.266530
H     1.448380     1.980370     5.936090
H     1.481030     1.155000     9.094030
O     3.099170     2.948610     9.278160
O     8.230740     4.281240     0.142392
O     9.785500     4.416890     4.019690
O     2.008200     4.875350     7.593920
H     0.596902     2.112990    10.048165
C     0.616866     8.430190     7.237460
H     4.146720     7.715460     9.487030
H     7.887350     7.186930     9.105850
H     1.559990     4.192980     2.506550
O     1.539410     6.376380     4.953210
O     8.074050     8.670280     6.021450
O     3.795550     7.106780     1.976580
O     2.077490     2.444090     5.061600
