72
t = 0 ps, 24 molecules: 16xO2, 8xCH4
H     3.298650     2.714700     3.307250
C     2.769850     2.553700     2.371350
H     2.974950     3.377700     1.692750
H     3.104350     1.622300     1.921750
H     1.701350     2.500000     2.563450
O     0.184547     0.800028     0.799965
O     1.415450     0.799972     0.800035
O     2.884550     4.500030     2.999960
O     4.115450     4.499970     3.000040
H     3.298650     2.714700     8.307250
C     2.769850     2.553700     7.371350
H     2.974950     3.377700     6.692750
H     3.104350     1.622300     6.921750
H     1.701350     2.500000     7.563450
O     0.184547     0.800028     5.799960
O     1.415450     0.799972     5.800040
O     2.884550     4.500030     7.999960
O     4.115450     4.499970     8.000040
H     3.298650     7.714700     3.307250
C     2.769850     7.553700     2.371350
H     2.974950     8.377700     1.692750
H     3.104350     6.622300     1.921750
H     1.701350     7.500000     2.563450
O     0.184547     5.800030     0.799965
O     1.415450     5.799970     0.800035
O     2.884550     9.500030     2.999960
O     4.115450     9.499970     3.000040
H     3.298650     7.714700     8.307250
C     2.769850     7.553700     7.371350
H     2.974950     8.377700     6.692750
H     3.104350     6.622300     6.921750
H     1.701350     7.500000     7.563450
O     0.184547     5.800030     5.799960
O     1.415450     5.799970     5.800040
O     2.884550     9.500030     7.999960
O     4.115450     9.499970     8.000040
H     8.298650     2.714700     3.307250
C     7.769850     2.553700     2.371350
H     7.974950     3.377700     1.692750
H     8.104350     1.622300     1.921750
H     6.701350     2.500000     2.563450
O     5.184550     0.800028     0.799965
O     6.415450     0.799972     0.800035
O     7.884550     4.500030     2.999960
O     9.115450     4.499970     3.000040
H     8.298650     2.714700     8.307250
C     7.769850     2.553700     7.371350
H     7.974950     3.377700     6.692750
H     8.104350     1.622300     6.921750
H     6.701350     2.500000     7.563450
O     5.184550     0.800028     5.799960
O     6.415450     0.799972     5.800040
O     7.884550     4.500030     7.999960
O     9.115450     4.499970     8.000040
H     8.298650     7.714700     3.307250
C     7.769850     7.553700     2.371350
H     7.974950     8.377700     1.692750
H     8.104350     6.622300     1.921750
H     6.701350     7.500000     2.563450
O     5.184550     5.800030     0.799965
O     6.415450     5.799970     0.800035
O     7.884550     9.500030     2.999960
O     9.115450     9.499970     3.000040
H     8.298650     7.714700     8.307250
C     7.769850     7.553700     7.371350
H     7.974950     8.377700     6.692750
H     8.104350     6.622300     6.921750
H     6.701350     7.500000     7.563450
O     5.184550     5.800030     5.799960
O     6.415450     5.799970     5.800040
O     7.884550     9.500030     7.999960
O     9.115450     9.499970     8.000040
